p cnf 4487 16697
1 50 58 59 79 100 121 285 286 301 311 376 377 401 0
2 3 4 5 6 7 8 9 12 26 27 28 29 30 31 32 33 34 35 36 37 38 39 49 52 53 54 55 56 60 61 101 119 120 129 130 131 132 133 134 139 140 141 142 143 144 145 146 147 148 149 150 151 152 153 154 155 156 157 158 159 160 161 162 163 171 172 173 174 179 193 194 195 196 197 198 199 200 201 202 203 204 205 206 207 208 209 210 211 212 213 214 215 216 217 218 219 220 221 222 223 224 225 226 227 228 229 230 231 232 233 234 235 236 237 238 239 240 241 242 243 244 245 246 247 248 249 250 257 276 278 279 280 281 309 339 340 341 342 348 349 350 351 352 365 366 367 370 371 382 383 399 400 402 0
2 3 4 5 6 7 8 9 12 26 27 28 29 30 31 32 33 34 35 36 37 38 39 49 52 53 54 55 56 60 61 101 119 120 129 130 131 132 133 134 139 140 141 142 143 144 145 146 147 148 149 150 151 152 153 154 155 156 157 158 159 160 161 162 163 171 172 173 174 179 193 194 195 196 197 198 199 200 201 202 203 204 205 206 207 208 209 210 211 212 213 214 215 216 217 218 219 220 221 222 223 224 225 226 227 228 229 230 231 232 233 234 235 236 237 238 239 240 241 242 243 244 245 246 247 248 249 250 257 276 278 279 280 281 309 339 340 341 342 348 349 350 351 352 365 366 367 370 371 382 383 399 400 402 0
2 3 4 5 6 7 8 9 12 26 27 28 29 30 31 32 33 34 35 36 37 38 39 49 52 53 54 55 56 60 61 101 119 120 129 130 131 132 133 134 139 140 141 142 143 144 145 146 147 148 149 150 151 152 153 154 155 156 157 158 159 160 161 162 163 171 172 173 174 179 193 194 195 196 197 198 199 200 201 202 203 204 205 206 207 208 209 210 211 212 213 214 215 216 217 218 219 220 221 222 223 224 225 226 227 228 229 230 231 232 233 234 235 236 237 238 239 240 241 242 243 244 245 246 247 248 249 250 257 276 278 279 280 281 309 339 340 341 342 348 349 350 351 352 365 366 367 370 371 382 383 399 400 402 0
2 3 4 5 6 7 8 9 12 26 27 28 29 30 31 32 33 34 35 36 37 38 39 49 52 53 54 55 56 60 61 101 119 120 129 130 131 132 133 134 139 140 141 142 143 144 145 146 147 148 149 150 151 152 153 154 155 156 157 158 159 160 161 162 163 171 172 173 174 179 193 194 195 196 197 198 199 200 201 202 203 204 205 206 207 208 209 210 211 212 213 214 215 216 217 218 219 220 221 222 223 224 225 226 227 228 229 230 231 232 233 234 235 236 237 238 239 240 241 242 243 244 245 246 247 248 249 250 257 276 278 279 280 281 309 339 340 341 342 348 349 350 351 352 365 366 367 370 371 382 383 399 400 402 0
2 3 4 5 6 7 8 9 12 26 27 28 29 30 31 32 33 34 35 36 37 38 39 49 52 53 54 55 56 60 61 101 119 120 129 130 131 132 133 134 139 140 141 142 143 144 145 146 147 148 149 150 151 152 153 154 155 156 157 158 159 160 161 162 163 171 172 173 174 179 193 194 195 196 197 198 199 200 201 202 203 204 205 206 207 208 209 210 211 212 213 214 215 216 217 218 219 220 221 222 223 224 225 226 227 228 229 230 231 232 233 234 235 236 237 238 239 240 241 242 243 244 245 246 247 248 249 250 257 276 278 279 280 281 309 339 340 341 342 348 349 350 351 352 365 366 367 370 371 382 383 399 400 402 0
2 3 4 5 6 7 8 9 12 26 27 28 29 30 31 32 33 34 35 36 37 38 39 49 52 53 54 55 56 60 61 101 119 120 129 130 131 132 133 134 139 140 141 142 143 144 145 146 147 148 149 150 151 152 153 154 155 156 157 158 159 160 161 162 163 171 172 173 174 179 193 194 195 196 197 198 199 200 201 202 203 204 205 206 207 208 209 210 211 212 213 214 215 216 217 218 219 220 221 222 223 224 225 226 227 228 229 230 231 232 233 234 235 236 237 238 239 240 241 242 243 244 245 246 247 248 249 250 257 259 276 278 279 280 281 309 339 340 341 342 348 349 350 351 352 365 366 367 370 371 382 383 399 400 402 0
2 3 4 5 6 7 8 9 12 26 27 28 29 30 31 32 33 34 35 36 37 38 39 49 52 53 54 55 56 60 61 101 119 120 129 130 131 132 133 134 139 140 141 142 143 144 145 146 147 148 149 150 151 152 153 154 155 156 157 158 159 160 161 162 163 171 172 173 174 179 193 194 195 196 197 198 199 200 201 202 203 204 205 206 207 208 209 210 211 212 213 214 215 216 217 218 219 220 221 222 223 224 225 226 227 228 229 230 231 232 233 234 235 236 237 238 239 240 241 242 243 244 245 246 247 248 249 250 257 259 260 276 278 279 280 281 309 337 339 340 341 342 348 349 350 351 352 365 366 367 370 371 382 383 399 400 402 0
2 3 4 5 6 7 8 9 12 26 27 28 29 30 31 32 33 34 35 36 37 38 39 49 52 53 54 55 56 60 61 101 119 120 129 130 131 132 133 134 139 140 141 142 143 144 145 146 147 148 149 150 151 152 153 154 155 156 157 158 159 160 161 162 163 171 172 173 174 179 193 194 195 196 197 198 199 200 201 202 203 204 205 206 207 208 209 210 211 212 213 214 215 216 217 218 219 220 221 222 223 224 225 226 227 228 229 230 231 232 233 234 235 236 237 238 239 240 241 242 243 244 245 246 247 248 249 250 257 276 278 279 280 281 309 339 340 341 342 348 349 350 351 352 365 366 367 370 371 382 383 399 400 402 0
10 11 13 64 65 66 67 68 69 70 71 72 73 105 106 107 136 175 176 177 178 287 303 304 305 343 344 346 362 372 373 385 396 0
10 11 13 64 65 66 67 68 69 70 71 72 73 105 106 107 136 175 176 177 178 287 303 304 305 343 344 346 362 372 373 385 396 0
2 3 4 5 6 7 8 9 12 26 27 28 29 30 31 32 33 34 35 36 37 38 39 49 52 53 54 55 56 60 61 101 119 120 129 130 131 132 133 134 139 140 141 142 143 144 145 146 147 148 149 150 151 152 153 154 155 156 157 158 159 160 161 162 163 171 172 173 174 179 193 194 195 196 197 198 199 200 201 202 203 204 205 206 207 208 209 210 211 212 213 214 215 216 217 218 219 220 221 222 223 224 225 226 227 228 229 230 231 232 233 234 235 236 237 238 239 240 241 242 243 244 245 246 247 248 249 250 257 276 278 279 280 281 309 339 340 341 342 348 349 350 351 352 365 366 367 370 371 382 383 399 400 402 0
10 11 13 64 65 66 67 68 69 70 71 72 73 105 106 107 136 175 176 177 178 287 303 304 305 343 344 346 362 372 373 385 396 0
14 15 16 41 44 47 48 51 57 62 63 81 82 83 84 85 86 87 88 89 90 91 92 93 94 95 96 97 98 99 102 109 110 111 118 126 127 128 183 184 185 186 187 275 314 315 316 317 318 329 330 333 347 356 361 363 374 384 393 397 404 405 417 0
14 15 16 41 44 47 48 51 57 62 63 76 81 82 83 84 85 86 87 88 89 90 91 92 93 94 95 96 97 98 99 109 110 111 118 126 127 128 183 184 185 186 187 275 314 315 316 317 329 333 356 363 374 384 393 405 417 0
14 15 16 41 44 47 48 51 57 62 63 76 81 82 83 84 85 86 87 88 89 90 91 92 93 94 95 96 97 98 99 109 110 111 118 126 127 128 183 184 185 186 187 314 315 316 317 329 356 363 374 384 393 405 417 0
17 167 168 169 170 251 252 253 254 255 256 288 289 290 291 292 295 306 307 308 368 388 392 0
18 19 20 21 23 24 25 45 57 78 80 112 113 114 115 116 117 118 123 124 137 138 258 261 262 263 264 265 266 267 268 269 270 271 272 273 274 275 282 283 284 297 298 302 313 314 315 316 317 318 319 320 321 322 323 324 325 326 327 328 329 331 332 333 338 347 354 357 358 359 360 361 363 364 369 374 378 379 380 381 389 390 391 394 395 398 404 405 406 407 408 409 410 411 412 413 414 415 0
18 19 20 21 23 24 25 45 57 78 80 112 113 114 115 116 117 118 123 124 137 138 258 261 262 263 264 265 266 267 268 269 270 271 272 273 274 275 282 283 284 297 298 313 314 315 316 317 318 319 320 321 322 323 324 325 326 327 328 329 331 332 333 338 347 354 357 360 361 363 364 369 374 378 379 380 381 389 390 391 394 395 398 404 405 406 407 408 409 410 411 412 413 414 415 0
18 19 20 21 24 25 45 46 57 78 79 80 112 113 114 115 116 117 118 123 124 137 164 165 166 261 262 263 264 265 266 267 268 269 270 271 272 273 274 282 283 284 285 297 298 311 316 317 318 319 320 321 322 323 324 325 326 327 328 329 331 332 338 347 354 357 360 361 363 364 369 374 375 378 379 380 381 389 390 391 394 395 398 401 405 406 407 408 409 410 411 412 413 414 415 0
18 19 20 21 24 25 45 46 57 78 79 80 112 113 114 115 116 117 118 123 124 164 165 166 261 262 263 264 265 266 267 268 269 270 271 272 273 274 282 283 284 285 297 298 316 317 318 319 320 321 322 323 324 325 326 327 328 329 331 332 338 347 354 357 360 361 363 364 369 374 375 378 379 380 381 389 390 391 394 395 398 401 405 406 407 408 409 410 411 412 413 414 415 0
22 103 104 293 294 0
18 19 23 24 25 45 78 102 112 113 114 115 116 117 123 124 137 138 258 261 262 263 264 265 266 267 268 269 270 271 272 273 274 275 297 298 302 312 313 318 319 320 321 322 323 324 325 326 327 328 330 331 332 333 338 347 354 357 358 359 360 361 364 369 378 379 380 381 395 397 398 404 406 407 408 409 410 411 412 413 414 415 0
18 19 20 21 23 24 25 45 57 78 80 112 113 114 115 116 117 118 123 124 137 138 258 261 262 263 264 265 266 267 268 269 270 271 272 273 274 282 283 284 297 298 302 313 314 315 316 317 318 319 320 321 322 323 324 325 326 327 328 329 331 332 333 338 347 354 357 358 359 360 361 363 364 369 374 378 379 380 381 389 390 391 394 395 398 404 405 406 407 408 409 410 411 412 413 414 415 0
18 19 20 21 23 24 25 45 57 78 80 112 113 114 115 116 117 118 123 124 137 138 258 261 262 263 264 265 266 267 268 269 270 271 272 273 274 275 282 283 284 297 298 302 312 313 314 315 316 317 318 319 320 321 322 323 324 325 326 327 328 329 331 332 333 338 347 354 357 358 359 360 361 363 364 369 374 378 379 380 381 389 390 391 394 395 398 404 405 406 407 408 409 410 411 412 413 414 415 0
2 3 4 5 6 7 8 9 12 26 27 28 29 30 31 32 33 34 35 36 37 38 39 49 52 53 54 55 56 60 61 101 119 120 129 130 131 132 133 134 139 140 141 142 143 144 145 146 147 148 149 150 151 152 153 154 155 156 157 158 159 160 161 162 163 171 172 173 174 179 193 194 195 196 197 198 199 200 201 202 203 204 205 206 207 208 209 210 211 212 213 214 215 216 217 218 219 220 221 222 223 224 225 226 227 228 229 230 231 232 233 234 235 236 237 238 239 240 241 242 243 244 245 246 247 248 249 250 257 276 278 279 280 281 339 340 341 342 348 349 350 351 352 365 366 367 370 371 382 383 399 400 402 0
2 3 4 5 6 7 8 9 12 26 27 28 29 30 31 32 33 34 35 36 37 38 39 49 52 53 54 55 56 60 61 101 119 120 129 130 131 132 133 134 139 140 141 142 143 144 145 146 147 148 149 150 151 152 153 154 155 156 157 158 159 160 161 162 163 171 172 173 174 179 193 194 195 196 197 198 199 200 201 202 203 204 205 206 207 208 209 210 211 212 213 214 215 216 217 218 219 220 221 222 223 224 225 226 227 228 229 230 231 232 233 234 235 236 237 238 239 240 241 242 243 244 245 246 247 248 249 250 257 276 278 279 280 281 339 340 341 342 348 349 350 351 352 365 366 367 370 371 382 383 399 400 402 0
2 3 4 5 6 7 8 9 12 26 27 28 29 30 31 32 33 34 35 36 37 38 39 49 52 53 54 55 56 60 61 101 119 120 129 130 131 132 133 134 139 140 141 142 143 144 145 146 147 148 149 150 151 152 153 154 155 156 157 158 159 160 161 162 163 171 172 173 174 179 193 194 195 196 197 198 199 200 201 202 203 204 205 206 207 208 209 210 211 212 213 214 215 216 217 218 219 220 221 222 223 224 225 226 227 228 229 230 231 232 233 234 235 236 237 238 239 240 241 242 243 244 245 246 247 248 249 250 257 276 278 279 280 281 309 339 340 341 342 348 349 350 351 352 365 366 367 370 371 382 383 399 400 402 0
2 3 4 5 6 7 8 9 12 26 27 28 29 30 31 32 33 34 35 36 37 38 39 49 52 53 54 55 56 60 61 101 119 120 129 130 131 132 133 134 139 140 141 142 143 144 145 146 147 148 149 150 151 152 153 154 155 156 157 158 159 160 161 162 163 171 172 173 174 179 193 194 195 196 197 198 199 200 201 202 203 204 205 206 207 208 209 210 211 212 213 214 215 216 217 218 219 220 221 222 223 224 225 226 227 228 229 230 231 232 233 234 235 236 237 238 239 240 241 242 243 244 245 246 247 248 249 250 257 276 278 279 280 281 339 340 341 342 348 349 350 351 352 365 366 367 370 371 382 383 399 400 402 0
2 3 4 5 6 7 8 9 12 26 27 28 29 30 31 32 33 34 35 36 37 38 39 49 52 53 54 55 56 60 61 101 119 120 129 130 131 132 133 134 139 140 141 142 143 144 145 146 147 148 149 150 151 152 153 154 155 156 157 158 159 160 161 162 163 171 172 173 174 179 193 194 195 196 197 198 199 200 201 202 203 204 205 206 207 208 209 210 211 212 213 214 215 216 217 218 219 220 221 222 223 224 225 226 227 228 229 230 231 232 233 234 235 236 237 238 239 240 241 242 243 244 245 246 247 248 249 250 257 276 278 279 280 281 309 339 340 341 342 348 349 350 351 352 365 366 367 370 371 382 383 399 400 402 0
2 3 4 5 6 7 8 9 12 26 27 28 29 30 31 32 33 34 35 36 37 38 39 49 52 53 54 55 56 60 61 101 119 120 129 130 131 132 133 134 139 140 141 142 143 144 145 146 147 148 149 150 151 152 153 154 155 156 157 158 159 160 161 162 163 171 172 173 174 179 193 194 195 196 197 198 199 200 201 202 203 204 205 206 207 208 209 210 211 212 213 214 215 216 217 218 219 220 221 222 223 224 225 226 227 228 229 230 231 232 233 234 235 236 237 238 239 240 241 242 243 244 245 246 247 248 249 250 257 276 278 279 280 281 309 339 340 341 342 348 349 350 351 352 365 366 367 370 371 382 383 399 400 402 0
2 3 4 5 6 7 8 9 12 26 27 28 29 30 31 32 33 34 35 36 37 38 39 49 52 53 54 55 56 60 61 101 119 120 129 130 131 132 133 134 139 140 141 142 143 144 145 146 147 148 149 150 151 152 153 154 155 156 157 158 159 160 161 162 163 171 172 173 174 179 193 194 195 196 197 198 199 200 201 202 203 204 205 206 207 208 209 210 211 212 213 214 215 216 217 218 219 220 221 222 223 224 225 226 227 228 229 230 231 232 233 234 235 236 237 238 239 240 241 242 243 244 245 246 247 248 249 250 257 276 278 279 280 281 339 340 341 342 348 349 350 351 352 365 366 367 370 371 382 383 399 400 402 0
2 3 4 5 6 7 8 9 12 26 27 28 29 30 31 32 33 34 35 36 37 38 39 49 52 53 54 55 56 60 61 101 119 120 129 130 131 132 133 134 139 140 141 142 143 144 145 146 147 148 149 150 151 152 153 154 155 156 157 158 159 160 161 162 163 171 172 173 174 179 193 194 195 196 197 198 199 200 201 202 203 204 205 206 207 208 209 210 211 212 213 214 215 216 217 218 219 220 221 222 223 224 225 226 227 228 229 230 231 232 233 234 235 236 237 238 239 240 241 242 243 244 245 246 247 248 249 250 257 276 278 279 280 281 339 340 341 342 348 349 350 351 352 365 366 367 370 371 382 383 399 400 402 0
2 3 4 5 6 7 8 9 12 26 27 28 29 30 31 32 33 34 35 36 37 38 39 49 52 53 54 55 56 60 61 101 119 120 129 130 131 132 133 134 139 140 141 142 143 144 145 146 147 148 149 150 151 152 153 154 155 156 157 158 159 160 161 162 163 171 172 173 174 179 193 194 195 196 197 198 199 200 201 202 203 204 205 206 207 208 209 210 211 212 213 214 215 216 217 218 219 220 221 222 223 224 225 226 227 228 229 230 231 232 233 234 235 236 237 238 239 240 241 242 243 244 245 246 247 248 249 250 257 276 278 279 280 281 339 340 341 342 348 349 350 351 352 365 366 367 370 371 382 383 399 400 402 0
2 3 4 5 6 7 8 9 12 26 27 28 29 30 31 32 33 34 35 36 37 38 39 49 52 53 54 55 56 60 61 101 119 120 129 130 131 132 133 134 139 140 141 142 143 144 145 146 147 148 149 150 151 152 153 154 155 156 157 158 159 160 161 162 163 171 172 173 174 179 193 194 195 196 197 198 199 200 201 202 203 204 205 206 207 208 209 210 211 212 213 214 215 216 217 218 219 220 221 222 223 224 225 226 227 228 229 230 231 232 233 234 235 236 237 238 239 240 241 242 243 244 245 246 247 248 249 250 257 276 278 279 280 281 309 339 340 341 342 348 349 350 351 352 365 366 367 370 371 382 383 399 400 402 0
2 3 4 5 6 7 8 9 12 26 27 28 29 30 31 32 33 34 35 36 37 38 39 49 52 53 54 55 56 60 61 101 119 120 129 130 131 132 133 134 139 140 141 142 143 144 145 146 147 148 149 150 151 152 153 154 155 156 157 158 159 160 161 162 163 171 172 173 174 179 193 194 195 196 197 198 199 200 201 202 203 204 205 206 207 208 209 210 211 212 213 214 215 216 217 218 219 220 221 222 223 224 225 226 227 228 229 230 231 232 233 234 235 236 237 238 239 240 241 242 243 244 245 246 247 248 249 250 257 276 278 279 280 281 309 339 340 341 342 348 349 350 351 352 365 366 367 370 371 382 383 399 400 402 0
2 3 4 5 6 7 8 9 12 26 27 28 29 30 31 32 33 34 35 36 37 38 39 49 52 53 54 55 56 60 61 101 119 120 129 130 131 132 133 134 139 140 141 142 143 144 145 146 147 148 149 150 151 152 153 154 155 156 157 158 159 160 161 162 163 171 172 173 174 179 193 194 195 196 197 198 199 200 201 202 203 204 205 206 207 208 209 210 211 212 213 214 215 216 217 218 219 220 221 222 223 224 225 226 227 228 229 230 231 232 233 234 235 236 237 238 239 240 241 242 243 244 245 246 247 248 249 250 257 276 278 279 280 281 339 340 341 342 348 349 350 351 352 365 366 367 370 371 382 383 399 400 402 0
2 3 4 5 6 7 8 9 12 26 27 28 29 30 31 32 33 34 35 36 37 38 39 49 52 53 54 55 56 60 61 101 119 120 129 130 131 132 133 134 139 140 141 142 143 144 145 146 147 148 149 150 151 152 153 154 155 156 157 158 159 160 161 162 163 171 172 173 174 179 193 194 195 196 197 198 199 200 201 202 203 204 205 206 207 208 209 210 211 212 213 214 215 216 217 218 219 220 221 222 223 224 225 226 227 228 229 230 231 232 233 234 235 236 237 238 239 240 241 242 243 244 245 246 247 248 249 250 257 276 278 279 280 281 309 339 340 341 342 348 349 350 351 352 365 366 367 370 371 382 383 399 400 402 0
2 3 4 5 6 7 8 9 12 26 27 28 29 30 31 32 33 34 35 36 37 38 39 49 52 53 54 55 56 60 61 101 119 120 129 130 131 132 133 134 139 140 141 142 143 144 145 146 147 148 149 150 151 152 153 154 155 156 157 158 159 160 161 162 163 171 172 173 174 179 193 194 195 196 197 198 199 200 201 202 203 204 205 206 207 208 209 210 211 212 213 214 215 216 217 218 219 220 221 222 223 224 225 226 227 228 229 230 231 232 233 234 235 236 237 238 239 240 241 242 243 244 245 246 247 248 249 250 257 276 278 279 280 281 339 340 341 342 348 349 350 351 352 365 366 367 370 371 382 383 399 400 402 0
40 293 294 0
14 15 16 41 44 47 48 51 57 62 63 76 81 82 83 84 85 86 87 88 89 90 91 92 93 94 95 96 97 98 99 109 110 111 118 126 127 128 183 184 185 186 187 314 315 316 317 329 356 363 374 384 393 405 417 0
42 43 74 75 77 108 125 180 181 182 188 189 190 191 192 277 296 299 300 334 335 336 353 355 386 387 403 416 0
42 43 74 75 77 108 125 180 181 182 188 189 190 191 192 277 296 299 300 334 335 336 353 355 386 387 403 416 0
14 15 16 41 44 47 48 51 57 62 63 76 81 82 83 84 85 86 87 88 89 90 91 92 93 94 95 96 97 98 99 109 110 111 118 126 127 128 183 184 185 186 187 314 315 316 317 329 356 363 374 384 393 405 417 0
18 19 20 21 23 24 25 45 46 57 78 80 112 113 114 115 116 117 118 123 124 137 138 258 261 262 263 264 265 266 267 268 269 270 271 272 273 274 282 283 284 297 298 313 314 315 316 317 318 319 320 321 322 323 324 325 326 327 328 329 331 332 333 338 347 354 357 360 361 363 364 369 374 378 379 380 381 389 390 391 394 395 398 404 405 406 407 408 409 410 411 412 413 414 415 0
20 21 45 46 50 57 58 59 79 80 112 118 164 165 166 282 283 284 285 301 311 317 329 375 376 377 389 390 391 395 401 405 406 409 413 0
14 15 16 41 44 47 48 51 57 62 63 76 81 82 83 84 85 86 87 88 89 90 91 92 93 94 95 96 97 98 99 109 110 111 118 126 127 128 183 184 185 186 187 314 315 316 317 329 356 384 393 405 417 0
14 15 16 41 44 47 48 51 57 62 63 76 81 82 83 84 85 86 87 88 89 90 91 92 93 94 95 96 97 98 99 109 110 111 118 126 127 128 183 184 185 186 187 314 315 316 317 329 356 384 393 405 417 0
2 3 4 5 6 7 8 9 12 26 27 28 29 30 31 32 33 34 35 36 37 38 39 49 52 53 54 55 56 60 61 101 119 120 129 130 131 132 133 134 139 140 141 142 143 144 145 146 147 148 149 150 151 152 153 154 155 156 157 158 159 160 161 162 163 171 172 173 174 179 193 194 195 196 197 198 199 200 201 202 203 204 205 206 207 208 209 210 211 212 213 214 215 216 217 218 219 220 221 222 223 224 225 226 227 228 229 230 231 232 233 234 235 236 237 238 239 240 241 242 243 244 245 246 247 248 249 250 257 276 278 279 280 281 309 339 340 341 342 348 349 350 351 352 365 366 367 370 371 382 383 399 400 402 0
1 46 50 58 59 76 110 121 285 286 301 311 376 377 401 0
14 15 16 41 44 47 48 51 57 62 63 76 81 82 83 84 85 86 87 88 89 90 91 92 93 94 95 96 97 98 99 109 110 111 118 126 127 128 183 184 185 186 187 314 315 316 317 329 356 363 374 384 393 405 417 0
2 3 4 5 6 7 8 9 12 26 27 28 29 30 31 32 33 34 35 36 37 38 39 49 52 53 54 55 56 60 61 101 119 120 129 130 131 132 133 134 139 140 141 142 143 144 145 146 147 148 149 150 151 152 153 154 155 156 157 158 159 160 161 162 163 171 172 173 174 179 193 194 195 196 197 198 199 200 201 202 203 204 205 206 207 208 209 210 211 212 213 214 215 216 217 218 219 220 221 222 223 224 225 226 227 228 229 230 231 232 233 234 235 236 237 238 239 240 241 242 243 244 245 246 247 248 249 250 257 259 276 278 279 280 281 309 339 340 341 342 348 349 350 351 352 365 366 367 370 371 382 383 399 400 402 0
2 3 4 5 6 7 8 9 12 26 27 28 29 30 31 32 33 34 35 36 37 38 39 49 52 53 54 55 56 60 61 101 119 120 129 130 131 132 133 134 139 140 141 142 143 144 145 146 147 148 149 150 151 152 153 154 155 156 157 158 159 160 161 162 163 171 172 173 174 179 193 194 195 196 197 198 199 200 201 202 203 204 205 206 207 208 209 210 211 212 213 214 215 216 217 218 219 220 221 222 223 224 225 226 227 228 229 230 231 232 233 234 235 236 237 238 239 240 241 242 243 244 245 246 247 248 249 250 257 259 260 276 278 279 280 281 309 337 339 340 341 342 348 349 350 351 352 365 366 367 370 371 382 383 399 400 402 0
2 3 4 5 6 7 8 9 12 26 27 28 29 30 31 32 33 34 35 36 37 38 39 49 52 53 54 55 56 60 61 101 119 120 129 130 131 132 133 134 139 140 141 142 143 144 145 146 147 148 149 150 151 152 153 154 155 156 157 158 159 160 161 162 163 171 172 173 174 179 193 194 195 196 197 198 199 200 201 202 203 204 205 206 207 208 209 210 211 212 213 214 215 216 217 218 219 220 221 222 223 224 225 226 227 228 229 230 231 232 233 234 235 236 237 238 239 240 241 242 243 244 245 246 247 248 249 250 257 259 276 278 279 280 281 309 337 339 340 341 342 348 349 350 351 352 365 366 367 370 371 382 383 399 400 402 0
2 3 4 5 6 7 8 9 12 26 27 28 29 30 31 32 33 34 35 36 37 38 39 49 52 53 54 55 56 60 61 101 119 120 129 130 131 132 133 134 139 140 141 142 143 144 145 146 147 148 149 150 151 152 153 154 155 156 157 158 159 160 161 162 163 171 172 173 174 179 193 194 195 196 197 198 199 200 201 202 203 204 205 206 207 208 209 210 211 212 213 214 215 216 217 218 219 220 221 222 223 224 225 226 227 228 229 230 231 232 233 234 235 236 237 238 239 240 241 242 243 244 245 246 247 248 249 250 257 259 276 278 279 280 281 309 339 340 341 342 348 349 350 351 352 365 366 367 370 371 382 383 399 400 402 0
2 3 4 5 6 7 8 9 12 26 27 28 29 30 31 32 33 34 35 36 37 38 39 49 52 53 54 55 56 60 61 101 119 120 129 130 131 132 133 134 139 140 141 142 143 144 145 146 147 148 149 150 151 152 153 154 155 156 157 158 159 160 161 162 163 171 172 173 174 179 193 194 195 196 197 198 199 200 201 202 203 204 205 206 207 208 209 210 211 212 213 214 215 216 217 218 219 220 221 222 223 224 225 226 227 228 229 230 231 232 233 234 235 236 237 238 239 240 241 242 243 244 245 246 247 248 249 250 257 276 278 279 280 281 339 340 341 342 348 349 350 351 352 365 366 367 370 371 382 383 399 400 402 0
14 15 16 18 19 20 21 24 25 41 44 45 46 47 48 51 57 63 78 80 81 82 83 84 85 86 87 91 92 93 94 95 96 97 98 99 102 109 110 111 112 113 114 115 116 117 118 123 124 126 127 128 137 164 165 166 183 184 185 186 187 261 262 263 264 265 266 267 268 269 270 271 272 273 274 275 282 283 284 297 298 314 315 316 317 318 319 320 321 322 323 324 325 326 327 328 329 330 331 332 333 338 347 354 357 360 361 363 364 369 374 375 378 379 380 381 384 389 390 391 393 395 397 398 404 405 406 407 408 409 410 411 412 413 414 415 417 0
1 46 50 58 59 79 100 121 164 165 166 285 286 301 311 375 376 377 401 0
1 46 50 58 59 79 100 121 164 165 166 285 286 301 311 375 376 377 401 0
2 3 4 5 6 7 8 9 12 26 27 28 29 30 31 32 33 34 35 36 37 38 39 49 52 53 54 55 56 60 61 101 119 120 129 130 131 132 133 134 139 140 141 142 143 144 145 146 147 148 149 150 151 152 153 154 155 156 157 158 159 160 161 162 163 171 172 173 174 179 193 194 195 196 197 198 199 200 201 202 203 204 205 206 207 208 209 210 211 212 213 214 215 216 217 218 219 220 221 222 223 224 225 226 227 228 229 230 231 232 233 234 235 236 237 238 239 240 241 242 243 244 245 246 247 248 249 250 257 259 260 276 278 279 280 281 309 337 339 340 341 342 348 349 350 351 352 365 366 367 370 371 382 383 399 400 402 0
2 3 4 5 6 7 8 9 12 26 27 28 29 30 31 32 33 34 35 36 37 38 39 49 52 53 54 55 56 60 61 101 119 120 129 130 131 132 133 134 139 140 141 142 143 144 145 146 147 148 149 150 151 152 153 154 155 156 157 158 159 160 161 162 163 171 172 173 174 179 193 194 195 196 197 198 199 200 201 202 203 204 205 206 207 208 209 210 211 212 213 214 215 216 217 218 219 220 221 222 223 224 225 226 227 228 229 230 231 232 233 234 235 236 237 238 239 240 241 242 243 244 245 246 247 248 249 250 257 276 278 279 280 281 309 339 340 341 342 348 349 350 351 352 365 366 367 370 371 382 383 399 400 402 0
14 15 16 41 44 47 48 51 62 63 81 82 83 84 85 86 87 88 89 90 91 92 93 94 95 96 97 98 99 109 110 111 126 127 128 183 184 185 186 187 356 384 393 417 0
14 15 16 41 44 47 48 51 57 62 63 76 81 82 83 84 85 86 87 88 89 90 91 92 93 94 95 96 97 98 99 109 110 111 118 126 127 128 183 184 185 186 187 314 315 316 317 329 356 363 374 384 393 405 417 0
10 11 13 64 65 66 67 68 69 70 71 72 73 105 106 107 136 175 176 177 178 287 303 304 305 343 344 346 362 372 373 385 396 0
10 11 13 64 65 66 67 68 69 70 71 72 73 105 106 107 136 175 176 177 178 287 303 304 305 343 344 346 362 372 373 385 396 0
10 11 13 64 65 66 67 68 69 70 71 72 73 105 106 107 136 175 176 177 178 287 303 304 305 343 344 346 362 372 373 385 396 0
10 11 13 64 65 66 67 68 69 70 71 72 73 105 106 107 136 175 176 177 178 287 303 304 305 343 344 346 362 372 373 385 396 0
10 11 13 64 65 66 67 68 69 70 71 72 73 105 106 107 136 175 176 177 178 287 303 304 305 343 344 346 362 372 373 385 396 0
10 11 13 64 65 66 67 68 69 70 71 72 73 105 106 107 136 175 176 177 178 287 303 304 305 343 344 346 362 372 373 385 396 0
10 11 13 64 65 66 67 68 69 70 71 72 73 105 106 107 136 175 176 177 178 287 303 304 305 343 344 346 362 372 373 385 396 0
10 11 13 64 65 66 67 68 69 70 71 72 73 105 106 107 136 175 176 177 178 287 303 304 305 343 344 346 362 372 373 385 396 0
10 11 13 64 65 66 67 68 69 70 71 72 73 105 106 107 136 175 176 177 178 287 303 304 305 343 344 346 362 372 373 385 396 0
10 11 13 64 65 66 67 68 69 70 71 72 73 105 106 107 136 175 176 177 178 287 303 304 305 343 344 346 362 372 373 385 396 0
42 43 74 75 77 108 125 180 181 182 188 189 190 191 192 277 296 299 300 334 335 336 345 353 355 386 387 403 416 0
42 43 74 75 77 108 125 180 181 182 188 189 190 191 192 277 296 299 300 334 335 336 345 353 355 386 387 403 416 0
15 16 41 44 47 48 50 51 63 76 81 82 83 84 85 86 87 91 92 93 94 95 96 97 98 99 109 110 111 126 127 128 183 184 185 186 187 384 393 417 0
42 43 74 75 77 108 125 180 181 182 188 189 190 191 192 277 296 299 300 334 335 336 345 353 355 386 387 403 416 0
18 19 20 21 23 24 25 45 57 78 80 112 113 114 115 116 117 118 123 124 137 138 258 261 262 263 264 265 266 267 268 269 270 271 272 273 274 282 283 284 297 298 302 313 314 315 316 317 318 319 320 321 322 323 324 325 326 327 328 329 331 332 333 338 347 354 357 358 359 360 361 363 364 369 374 378 379 380 381 389 390 391 394 395 398 404 405 406 407 408 409 410 411 412 413 414 415 0
1 20 21 46 58 59 79 80 121 164 165 166 282 283 284 285 286 301 311 375 376 377 389 390 391 395 401 406 0
18 19 20 21 24 25 45 46 57 78 79 80 112 113 114 115 116 117 118 123 124 137 164 165 166 261 262 263 264 265 266 267 268 269 270 271 272 273 274 282 283 284 285 297 298 311 316 317 318 319 320 321 322 323 324 325 326 327 328 329 331 332 338 347 354 357 360 361 363 364 369 374 375 378 379 380 381 389 390 391 394 395 398 401 405 406 407 408 409 410 411 412 413 414 415 0
14 15 16 41 44 47 48 51 57 62 63 76 81 82 83 84 85 86 87 88 89 90 91 92 93 94 95 96 97 98 99 109 110 111 118 126 127 128 183 184 185 186 187 314 315 316 317 329 356 363 374 384 393 405 417 0
14 15 16 41 44 47 48 51 57 62 63 76 81 82 83 84 85 86 87 88 89 90 91 92 93 94 95 96 97 98 99 109 110 111 118 126 127 128 183 184 185 186 187 314 315 316 317 329 356 363 374 384 393 405 417 0
14 15 16 41 44 47 48 51 57 62 63 76 81 82 83 84 85 86 87 88 89 90 91 92 93 94 95 96 97 98 99 109 110 111 118 126 127 128 183 184 185 186 187 314 315 316 317 329 356 363 374 384 393 405 417 0
14 15 16 41 44 47 48 51 57 62 63 76 81 82 83 84 85 86 87 88 89 90 91 92 93 94 95 96 97 98 99 109 110 111 118 126 127 128 183 184 185 186 187 314 315 316 317 329 356 363 374 384 393 405 417 0
14 15 16 41 44 47 48 51 57 62 63 76 81 82 83 84 85 86 87 88 89 90 91 92 93 94 95 96 97 98 99 109 110 111 118 126 127 128 183 184 185 186 187 314 315 316 317 329 356 363 374 384 393 405 417 0
14 15 16 41 44 47 48 51 57 62 63 76 81 82 83 84 85 86 87 88 89 90 91 92 93 94 95 96 97 98 99 109 110 111 118 126 127 128 183 184 185 186 187 314 315 316 317 329 356 363 374 384 393 405 417 0
14 15 16 41 44 47 48 51 57 62 63 76 81 82 83 84 85 86 87 88 89 90 91 92 93 94 95 96 97 98 99 109 110 111 126 127 128 183 184 185 186 187 314 315 316 317 356 384 393 417 0
14 15 16 41 44 47 48 51 62 63 81 82 83 84 85 86 87 88 89 90 91 92 93 94 95 96 97 98 99 109 110 111 126 127 128 180 183 184 185 186 187 277 314 315 334 335 356 384 393 417 0
14 15 16 41 44 47 48 51 62 63 81 82 83 84 85 86 87 88 89 90 91 92 93 94 95 96 97 98 99 109 110 111 126 127 128 180 183 184 185 186 187 277 314 334 335 356 384 393 417 0
14 15 16 41 44 47 48 51 62 63 81 82 83 84 85 86 87 88 89 90 91 92 93 94 95 96 97 98 99 109 110 111 126 127 128 180 183 184 185 186 187 277 314 315 334 335 356 384 393 417 0
14 15 16 41 44 47 48 51 57 62 63 76 81 82 83 84 85 86 87 88 89 90 91 92 93 94 95 96 97 98 99 109 110 111 118 126 127 128 183 184 185 186 187 314 315 316 317 329 356 363 374 384 393 405 417 0
14 15 16 41 44 47 48 51 57 62 63 76 81 82 83 84 85 86 87 88 89 90 91 92 93 94 95 96 97 98 99 109 110 111 118 126 127 128 183 184 185 186 187 314 315 316 317 329 356 363 374 384 393 405 417 0
14 15 16 41 44 47 48 51 57 62 63 76 81 82 83 84 85 86 87 88 89 90 91 92 93 94 95 96 97 98 99 109 110 111 118 126 127 128 183 184 185 186 187 314 315 316 317 329 356 363 374 384 393 405 417 0
14 15 16 41 44 47 48 51 57 62 63 76 81 82 83 84 85 86 87 88 89 90 91 92 93 94 95 96 97 98 99 109 110 111 118 126 127 128 183 184 185 186 187 314 315 316 317 329 356 384 393 405 417 0
14 15 16 41 44 47 48 51 57 62 63 76 81 82 83 84 85 86 87 88 89 90 91 92 93 94 95 96 97 98 99 109 110 111 118 126 127 128 183 184 185 186 187 314 315 316 317 329 356 363 374 384 393 405 417 0
14 15 16 41 44 47 48 51 57 62 63 76 81 82 83 84 85 86 87 88 89 90 91 92 93 94 95 96 97 98 99 109 110 111 118 126 127 128 183 184 185 186 187 314 315 316 317 329 356 363 374 384 393 405 417 0
14 15 16 41 44 47 48 51 57 62 63 76 81 82 83 84 85 86 87 88 89 90 91 92 93 94 95 96 97 98 99 109 110 111 118 126 127 128 183 184 185 186 187 314 315 316 317 329 356 363 374 384 393 405 417 0
14 15 16 41 44 47 48 51 57 62 63 76 81 82 83 84 85 86 87 88 89 90 91 92 93 94 95 96 97 98 99 109 110 111 118 126 127 128 183 184 185 186 187 314 315 316 317 329 356 363 374 384 393 405 417 0
14 15 16 41 44 47 48 51 57 62 63 76 81 82 83 84 85 86 87 88 89 90 91 92 93 94 95 96 97 98 99 109 110 111 118 126 127 128 183 184 185 186 187 314 315 316 317 329 356 363 374 384 393 405 417 0
1 58 59 100 121 286 301 0
2 3 4 5 6 7 8 9 12 26 27 28 29 30 31 32 33 34 35 36 37 38 39 49 52 53 54 55 56 60 61 101 119 120 129 130 131 132 133 134 139 140 141 142 143 144 145 146 147 148 149 150 151 152 153 154 155 156 157 158 159 160 161 162 163 171 172 173 174 179 193 194 195 196 197 198 199 200 201 202 203 204 205 206 207 208 209 210 211 212 213 214 215 216 217 218 219 220 221 222 223 224 225 226 227 228 229 230 231 232 233 234 235 236 237 238 239 240 241 242 243 244 245 246 247 248 249 250 257 259 276 278 279 280 281 309 339 340 341 342 348 349 350 351 352 365 366 367 370 371 382 383 399 400 402 0
14 23 57 102 122 138 181 258 266 271 274 275 296 302 312 313 314 315 317 329 330 333 345 358 359 397 404 0
22 103 104 251 252 253 254 255 256 288 290 306 307 308 368 0
22 103 104 0
10 11 13 64 65 66 67 68 69 70 71 72 73 105 106 107 136 175 176 177 178 287 303 304 305 343 344 346 362 372 373 385 396 0
10 11 13 64 65 66 67 68 69 70 71 72 73 105 106 107 136 175 176 177 178 287 303 304 305 343 344 346 362 372 373 385 396 0
10 11 13 64 65 66 67 68 69 70 71 72 73 105 106 107 136 175 176 177 178 287 303 304 305 343 344 346 362 372 373 385 396 0
42 43 74 75 77 108 122 125 180 181 182 188 189 190 191 192 277 296 299 300 334 335 336 345 353 355 386 387 403 416 0
14 15 16 41 44 47 48 51 57 62 63 76 81 82 83 84 85 86 87 88 89 90 91 92 93 94 95 96 97 98 99 109 110 111 118 126 127 128 183 184 185 186 187 314 315 316 317 329 356 363 374 384 393 405 417 0
14 15 16 41 44 47 48 50 51 57 62 63 76 81 82 83 84 85 86 87 88 89 90 91 92 93 94 95 96 97 98 99 109 110 111 118 126 127 128 164 165 183 184 185 186 187 314 315 316 317 329 356 375 384 393 405 417 0
14 15 16 41 44 47 48 51 57 62 63 76 81 82 83 84 85 86 87 88 89 90 91 92 93 94 95 96 97 98 99 109 110 111 118 126 127 128 183 184 185 186 187 314 315 316 317 329 356 363 374 384 393 405 417 0
18 19 20 21 23 24 25 45 46 57 78 80 112 113 114 115 116 117 118 123 124 137 138 166 258 261 262 263 264 265 266 267 268 269 270 271 272 273 274 282 283 284 297 298 313 314 315 316 317 318 319 320 321 322 323 324 325 326 327 328 329 331 332 333 338 347 354 357 360 361 363 364 369 374 378 379 380 381 389 390 391 394 395 398 404 405 406 407 408 409 410 411 412 413 414 415 0
18 19 20 21 23 24 25 45 57 78 80 112 113 114 115 116 117 118 123 124 137 138 258 261 262 263 264 265 266 267 268 269 270 271 272 273 274 275 282 283 284 297 298 302 313 314 315 316 317 318 319 320 321 322 323 324 325 326 327 328 329 331 332 333 338 347 354 357 358 359 360 361 363 364 369 374 378 379 380 381 389 390 391 394 395 398 404 405 406 407 408 409 410 411 412 413 414 415 0
18 19 20 21 23 24 25 45 57 78 80 112 113 114 115 116 117 118 123 124 137 138 258 261 262 263 264 265 266 267 268 269 270 271 272 273 274 282 283 284 297 298 302 313 314 315 316 317 318 319 320 321 322 323 324 325 326 327 328 329 331 332 333 338 347 354 357 358 359 360 361 363 364 369 374 378 379 380 381 389 390 391 394 395 398 404 405 406 407 408 409 410 411 412 413 414 415 0
18 19 20 21 23 24 25 45 57 78 80 112 113 114 115 116 117 118 123 124 137 138 258 261 262 263 264 265 266 267 268 269 270 271 272 273 274 275 282 283 284 297 298 302 313 314 315 316 317 318 319 320 321 322 323 324 325 326 327 328 329 331 332 333 338 347 354 357 358 359 360 361 363 364 369 374 378 379 380 381 389 390 391 394 395 398 404 405 406 407 408 409 410 411 412 413 414 415 0
18 19 20 21 23 24 25 45 57 78 80 112 113 114 115 116 117 118 123 124 137 138 258 261 262 263 264 265 266 267 268 269 270 271 272 273 274 275 282 283 284 297 298 302 313 314 315 316 317 318 319 320 321 322 323 324 325 326 327 328 329 331 332 333 338 347 354 357 358 359 360 361 363 364 369 374 378 379 380 381 389 390 391 394 395 398 404 405 406 407 408 409 410 411 412 413 414 415 0
18 19 20 21 23 24 25 45 57 78 80 112 113 114 115 116 117 118 123 124 137 138 258 261 262 263 264 265 266 267 268 269 270 271 272 273 274 275 282 283 284 297 298 302 313 314 315 316 317 318 319 320 321 322 323 324 325 326 327 328 329 331 332 333 338 347 354 357 358 359 360 361 363 364 369 374 378 379 380 381 389 390 391 394 395 398 404 405 406 407 408 409 410 411 412 413 414 415 0
14 15 16 18 19 20 21 24 25 41 44 45 46 47 48 51 57 63 78 80 81 82 83 84 85 86 91 92 93 94 95 96 97 98 99 109 110 111 112 113 114 115 116 117 118 123 124 126 127 128 137 164 165 166 183 184 185 186 187 261 262 263 264 265 266 267 268 269 270 271 272 273 274 275 282 283 284 297 298 314 315 316 317 318 319 320 321 322 323 324 325 326 327 328 329 331 332 333 338 347 354 357 360 361 363 364 369 374 375 378 379 380 381 384 389 390 391 393 395 397 398 404 405 406 407 408 409 410 411 412 413 414 415 0
2 3 4 5 6 7 8 9 12 26 27 28 29 30 31 32 33 34 35 36 37 38 39 49 52 53 54 55 56 60 61 101 119 120 129 130 131 132 133 134 139 140 141 142 143 144 145 146 147 148 149 150 151 152 153 154 155 156 157 158 161 162 163 171 172 173 174 179 193 194 195 196 197 198 199 200 201 202 203 204 205 206 207 208 209 210 211 212 213 214 215 216 217 218 219 220 221 222 223 224 225 226 227 228 229 230 231 232 233 234 235 236 237 238 239 240 241 242 243 244 245 246 247 248 249 250 257 276 278 281 339 340 341 342 348 349 350 351 352 365 366 367 370 371 382 383 399 400 402 0
2 3 4 5 6 7 8 9 12 26 27 28 29 30 31 32 33 34 35 36 37 38 39 49 52 53 54 55 56 60 61 101 119 120 129 130 131 132 133 134 139 140 141 142 143 144 145 146 147 148 149 150 151 152 153 154 155 156 157 158 159 160 161 162 163 171 172 173 174 179 193 194 195 196 197 198 199 200 201 202 203 204 205 206 207 208 209 210 211 212 213 214 215 216 217 218 219 220 221 222 223 224 225 226 227 228 229 230 231 232 233 234 235 236 237 238 239 240 241 242 243 244 245 246 247 248 249 250 257 276 278 279 280 281 339 340 341 342 348 349 350 351 352 365 366 367 370 371 382 383 399 400 402 0
1 50 58 59 79 100 121 285 286 301 311 376 377 401 0
102 108 122 125 180 181 182 188 189 275 277 296 299 300 302 312 313 315 330 333 335 345 358 359 397 404 0
18 19 20 21 23 24 25 45 57 78 80 112 113 114 115 116 117 118 123 124 137 138 258 261 262 263 264 265 266 267 268 269 270 271 272 273 274 275 282 283 284 297 298 302 313 314 315 316 317 318 319 320 321 322 323 324 325 326 327 328 329 331 332 333 338 347 354 357 358 359 360 361 363 364 369 374 378 379 380 381 389 390 391 394 395 398 404 405 406 407 408 409 410 411 412 413 414 415 0
18 19 20 21 23 24 25 45 57 78 80 112 113 114 115 116 117 118 123 124 137 138 258 261 262 263 264 265 266 267 268 269 270 271 272 273 274 282 283 284 297 298 313 314 315 316 317 318 319 320 321 322 323 324 325 326 327 328 329 331 332 333 338 347 354 357 358 359 360 361 363 364 369 374 378 379 380 381 389 390 391 394 395 398 404 405 406 407 408 409 410 411 412 413 414 415 0
42 43 74 75 77 108 122 125 180 181 182 188 189 190 191 192 277 296 299 300 334 335 336 345 353 355 386 387 403 416 0
14 15 16 41 44 47 48 51 57 62 63 76 81 82 83 84 85 86 87 88 89 90 91 92 93 94 95 96 97 98 99 109 110 111 118 126 127 128 183 184 185 186 187 314 315 316 317 329 356 363 374 384 393 405 417 0
14 15 16 41 44 47 48 51 57 62 63 76 81 82 83 84 85 86 87 88 89 90 91 92 93 94 95 96 97 98 99 109 110 111 118 126 127 128 183 184 185 186 187 314 315 316 317 329 356 363 374 384 393 405 417 0
14 15 16 41 44 47 48 51 57 62 63 76 81 82 83 84 85 86 87 88 89 90 91 92 93 94 95 96 97 98 99 109 110 111 118 126 127 128 183 184 185 186 187 314 315 316 317 329 356 363 374 384 393 405 417 0
2 3 4 5 6 7 8 9 12 26 27 28 29 30 31 32 33 34 35 36 37 38 39 49 52 53 54 55 56 60 61 101 119 120 129 130 131 132 133 134 139 140 141 142 143 144 145 146 147 148 149 150 151 152 153 154 155 156 157 158 159 160 161 162 163 171 172 173 174 179 193 194 195 196 197 198 199 200 201 202 203 204 205 206 207 208 209 210 211 212 213 214 215 216 217 218 219 220 221 222 223 224 225 226 227 228 229 230 231 232 233 234 235 236 237 238 239 240 241 242 243 244 245 246 247 248 249 250 257 276 278 279 280 281 309 339 340 341 342 348 349 350 351 352 365 366 367 370 371 382 383 399 400 402 0
2 3 4 5 6 7 8 9 12 26 27 28 29 30 31 32 33 34 35 36 37 38 39 49 52 53 54 55 56 60 61 101 119 120 129 130 131 132 133 134 139 140 141 142 143 144 145 146 147 148 149 150 151 152 153 154 155 156 157 158 159 160 161 162 163 171 172 173 174 179 193 194 195 196 197 198 199 200 201 202 203 204 205 206 207 208 209 210 211 212 213 214 215 216 217 218 219 220 221 222 223 224 225 226 227 228 229 230 231 232 233 234 235 236 237 238 239 240 241 242 243 244 245 246 247 248 249 250 257 276 278 279 280 281 309 339 340 341 342 348 349 350 351 352 365 366 367 370 371 382 383 399 400 402 0
2 3 4 5 6 7 8 9 12 26 27 28 29 30 31 32 33 34 35 36 37 38 39 49 52 53 54 55 56 60 61 101 119 120 129 130 131 132 133 134 139 140 141 142 143 144 145 146 147 148 149 150 151 152 153 154 155 156 157 158 159 160 161 162 163 171 172 173 174 179 193 194 195 196 197 198 199 200 201 202 203 204 205 206 207 208 209 210 211 212 213 214 215 216 217 218 219 220 221 222 223 224 225 226 227 228 229 230 231 232 233 234 235 236 237 238 239 240 241 242 243 244 245 246 247 248 249 250 257 276 278 279 280 281 309 339 340 341 342 348 349 350 351 352 365 366 367 370 371 382 383 399 400 402 0
2 3 4 5 6 7 8 9 12 26 27 28 29 30 31 32 33 34 35 36 37 38 39 49 52 53 54 55 56 60 61 101 119 120 129 130 131 132 133 134 139 140 141 142 143 144 145 146 147 148 149 150 151 152 153 154 155 156 157 158 159 160 161 162 163 171 172 173 174 179 193 194 195 196 197 198 199 200 201 202 203 204 205 206 207 208 209 210 211 212 213 214 215 216 217 218 219 220 221 222 223 224 225 226 227 228 229 230 231 232 233 234 235 236 237 238 239 240 241 242 243 244 245 246 247 248 249 250 257 276 278 279 280 281 309 339 340 341 342 348 349 350 351 352 365 366 367 370 371 382 383 399 400 402 0
2 3 4 5 6 7 8 9 12 26 27 28 29 30 31 32 33 34 35 36 37 38 39 49 52 53 54 55 56 60 61 101 119 120 129 130 131 132 133 134 139 140 141 142 143 144 145 146 147 148 149 150 151 152 153 154 155 156 157 158 159 160 161 162 163 171 172 173 174 179 193 194 195 196 197 198 199 200 201 202 203 204 205 206 207 208 209 210 211 212 213 214 215 216 217 218 219 220 221 222 223 224 225 226 227 228 229 230 231 232 233 234 235 236 237 238 239 240 241 242 243 244 245 246 247 248 249 250 257 276 278 279 280 281 309 339 340 341 342 348 349 350 351 352 365 366 367 370 371 382 383 399 400 402 0
2 3 4 5 6 7 8 9 12 26 27 28 29 30 31 32 33 34 35 36 37 38 39 49 52 53 54 55 56 60 61 101 119 120 129 130 131 132 133 134 139 140 141 142 143 144 145 146 147 148 149 150 151 152 153 154 155 156 157 158 159 160 161 162 163 171 172 173 174 179 193 194 195 196 197 198 199 200 201 202 203 204 205 206 207 208 209 210 211 212 213 214 215 216 217 218 219 220 221 222 223 224 225 226 227 228 229 230 231 232 233 234 235 236 237 238 239 240 241 242 243 244 245 246 247 248 249 250 257 276 278 279 280 281 309 339 340 341 342 348 349 350 351 352 365 366 367 370 371 382 383 399 400 402 0
135 0
10 11 13 64 65 66 67 68 69 70 71 72 73 105 106 107 136 175 176 177 178 287 303 304 305 343 344 346 362 372 373 385 396 0
18 19 20 23 24 25 45 57 78 80 112 113 114 115 116 117 118 123 124 137 138 258 261 262 263 264 265 266 267 268 269 270 271 272 273 274 275 297 298 302 312 313 314 316 317 318 319 320 321 322 323 324 325 326 327 328 329 331 332 333 338 347 354 357 358 359 360 361 363 364 369 374 378 379 380 381 389 390 394 395 397 398 404 405 406 407 408 409 410 411 412 413 414 415 0
18 19 23 24 25 45 78 102 112 113 114 115 116 117 123 124 137 138 258 261 262 263 264 265 266 267 268 269 270 271 272 273 274 275 297 298 302 312 313 318 319 320 321 322 323 324 325 326 327 328 330 331 332 333 338 347 354 357 358 359 360 361 364 369 378 379 380 381 395 397 398 404 406 407 408 409 410 411 412 413 414 415 0
2 3 4 5 6 7 8 9 12 26 27 28 29 30 31 32 33 34 35 36 37 38 39 49 52 53 54 55 56 60 61 101 119 120 129 130 131 132 133 134 139 140 141 142 143 144 145 146 147 148 149 150 151 152 153 154 155 156 157 158 159 160 161 162 163 171 172 173 174 179 193 194 195 196 197 198 199 200 201 202 203 204 205 206 207 208 209 210 211 212 213 214 215 216 217 218 219 220 221 222 223 224 225 226 227 228 229 230 231 232 233 234 235 236 237 238 239 240 241 242 243 244 245 246 247 248 249 250 257 276 278 279 280 281 309 339 340 341 342 348 349 350 351 352 365 366 367 370 371 382 383 399 400 402 0
2 3 4 5 6 7 8 9 12 26 27 28 29 30 31 32 33 34 35 36 37 38 39 49 52 53 54 55 56 60 61 101 119 120 129 130 131 132 133 134 139 140 141 142 143 144 145 146 147 148 149 150 151 152 153 154 155 156 157 158 159 160 161 162 163 171 172 173 174 179 193 194 195 196 197 198 199 200 201 202 203 204 205 206 207 208 209 210 211 212 213 214 215 216 217 218 219 220 221 222 223 224 225 226 227 228 229 230 231 232 233 234 235 236 237 238 239 240 241 242 243 244 245 246 247 248 249 250 257 276 278 279 280 281 309 339 340 341 342 348 349 350 351 352 365 366 367 370 371 382 383 399 400 402 0
2 3 4 5 6 7 8 9 12 26 27 28 29 30 31 32 33 34 35 36 37 38 39 49 52 53 54 55 56 60 61 101 119 120 129 130 131 132 133 134 139 140 141 142 143 144 145 146 147 148 149 150 151 152 153 154 155 156 157 158 159 160 161 162 163 171 172 173 174 179 193 194 195 196 197 198 199 200 201 202 203 204 205 206 207 208 209 210 211 212 213 214 215 216 217 218 219 220 221 222 223 224 225 226 227 228 229 230 231 232 233 234 235 236 237 238 239 240 241 242 243 244 245 246 247 248 249 250 257 276 278 279 280 281 339 340 341 342 348 349 350 351 352 365 366 367 370 371 382 383 399 400 402 0
2 3 4 5 6 7 8 9 12 26 27 28 29 30 31 32 33 34 35 36 37 38 39 49 52 53 54 55 56 60 61 101 119 120 129 130 131 132 133 134 139 140 141 142 143 144 145 146 147 148 149 150 151 152 153 154 155 156 157 158 159 160 161 162 163 171 172 173 174 179 193 194 195 196 197 198 199 200 201 202 203 204 205 206 207 208 209 210 211 212 213 214 215 216 217 218 219 220 221 222 223 224 225 226 227 228 229 230 231 232 233 234 235 236 237 238 239 240 241 242 243 244 245 246 247 248 249 250 257 276 278 279 280 281 309 339 340 341 342 348 349 350 351 352 365 366 367 370 371 382 383 399 400 402 0
2 3 4 5 6 7 8 9 12 26 27 28 29 30 31 32 33 34 35 36 37 38 39 49 52 53 54 55 56 60 61 101 119 120 129 130 131 132 133 134 139 140 141 142 143 144 145 146 147 148 149 150 151 152 153 154 155 156 157 158 159 160 161 162 163 171 172 173 174 179 193 194 195 196 197 198 199 200 201 202 203 204 205 206 207 208 209 210 211 212 213 214 215 216 217 218 219 220 221 222 223 224 225 226 227 228 229 230 231 232 233 234 235 236 237 238 239 240 241 242 243 244 245 246 247 248 249 250 257 276 278 279 280 281 339 340 341 342 348 349 350 351 352 365 366 367 370 371 382 383 399 400 402 0
2 3 4 5 6 7 8 9 12 26 27 28 29 30 31 32 33 34 35 36 37 38 39 49 52 53 54 55 56 60 61 101 119 120 129 130 131 132 133 134 139 140 141 142 143 144 145 146 147 148 149 150 151 152 153 154 155 156 157 158 159 160 161 162 163 171 172 173 174 179 193 194 195 196 197 198 199 200 201 202 203 204 205 206 207 208 209 210 211 212 213 214 215 216 217 218 219 220 221 222 223 224 225 226 227 228 229 230 231 232 233 234 235 236 237 238 239 240 241 242 243 244 245 246 247 248 249 250 257 276 278 279 280 281 339 340 341 342 348 349 350 351 352 365 366 367 370 371 382 383 399 400 402 0
2 3 4 5 6 7 8 9 12 26 27 28 29 30 31 32 33 34 35 36 37 38 39 49 52 53 54 55 56 60 61 101 119 120 129 130 131 132 133 134 139 140 141 142 143 144 145 146 147 148 149 150 151 152 153 154 155 156 157 158 159 160 161 162 163 171 172 173 174 179 193 194 195 196 197 198 199 200 201 202 203 204 205 206 207 208 209 210 211 212 213 214 215 216 217 218 219 220 221 222 223 224 225 226 227 228 229 230 231 232 233 234 235 236 237 238 239 240 241 242 243 244 245 246 247 248 249 250 257 276 278 279 280 281 309 339 340 341 342 348 349 350 351 352 365 366 367 370 371 382 383 399 400 402 0
2 3 4 5 6 7 8 9 12 26 27 28 29 30 31 32 33 34 35 36 37 38 39 49 52 53 54 55 56 60 61 101 119 120 129 130 131 132 133 134 139 140 141 142 143 144 145 146 147 148 149 150 151 152 153 154 155 156 157 158 159 160 161 162 163 171 172 173 174 179 193 194 195 196 197 198 199 200 201 202 203 204 205 206 207 208 209 210 211 212 213 214 215 216 217 218 219 220 221 222 223 224 225 226 227 228 229 230 231 232 233 234 235 236 237 238 239 240 241 242 243 244 245 246 247 248 249 250 257 276 278 279 280 281 309 339 340 341 342 348 349 350 351 352 365 366 367 370 371 382 383 399 400 402 0
2 3 4 5 6 7 8 9 12 26 27 28 29 30 31 32 33 34 35 36 37 38 39 49 52 53 54 55 56 60 61 101 119 120 129 130 131 132 133 134 139 140 141 142 143 144 145 146 147 148 149 150 151 152 153 154 155 156 157 158 159 160 161 162 163 171 172 173 174 179 193 194 195 196 197 198 199 200 201 202 203 204 205 206 207 208 209 210 211 212 213 214 215 216 217 218 219 220 221 222 223 224 225 226 227 228 229 230 231 232 233 234 235 236 237 238 239 240 241 242 243 244 245 246 247 248 249 250 257 276 278 279 280 281 309 339 340 341 342 348 349 350 351 352 365 366 367 370 371 382 383 399 400 402 0
2 3 4 5 6 7 8 9 12 26 27 28 29 30 31 32 33 34 35 36 37 38 39 49 52 53 54 55 56 60 61 101 119 120 129 130 131 132 133 134 139 140 141 142 143 144 145 146 147 148 149 150 151 152 153 154 155 156 157 158 159 160 161 162 163 171 172 173 174 179 193 194 195 196 197 198 199 200 201 202 203 204 205 206 207 208 209 210 211 212 213 214 215 216 217 218 219 220 221 222 223 224 225 226 227 228 229 230 231 232 233 234 235 236 237 238 239 240 241 242 243 244 245 246 247 248 249 250 257 276 278 279 280 281 309 339 340 341 342 348 349 350 351 352 365 366 367 370 371 382 383 399 400 402 0
2 3 4 5 6 7 8 9 12 26 27 28 29 30 31 32 33 34 35 36 37 38 39 49 52 53 54 55 56 60 61 101 119 120 129 130 131 132 133 134 139 140 141 142 143 144 145 146 147 148 149 150 151 152 153 154 155 156 157 158 159 160 161 162 163 171 172 173 174 179 193 194 195 196 197 198 199 200 201 202 203 204 205 206 207 208 209 210 211 212 213 214 215 216 217 218 219 220 221 222 223 224 225 226 227 228 229 230 231 232 233 234 235 236 237 238 239 240 241 242 243 244 245 246 247 248 249 250 257 259 276 278 279 280 281 309 339 340 341 342 348 349 350 351 352 365 366 367 370 371 382 383 399 400 402 0
2 3 4 5 6 7 8 9 12 26 27 28 29 30 31 32 33 34 35 36 37 38 39 49 52 53 54 55 56 60 61 101 119 120 129 130 131 132 133 134 139 140 141 142 143 144 145 146 147 148 149 150 151 152 153 154 155 156 157 158 159 160 161 162 163 171 172 173 174 179 193 194 195 196 197 198 199 200 201 202 203 204 205 206 207 208 209 210 211 212 213 214 215 216 217 218 219 220 221 222 223 224 225 226 227 228 229 230 231 232 233 234 235 236 237 238 239 240 241 242 243 244 245 246 247 248 249 250 257 276 278 279 280 281 309 339 340 341 342 348 349 350 351 352 365 366 367 370 371 382 383 399 400 402 0
2 3 4 5 6 7 8 9 12 26 27 28 29 30 31 32 33 34 35 36 37 38 39 49 52 53 54 55 56 60 61 101 119 120 129 130 131 132 133 134 139 140 141 142 143 144 145 146 147 148 149 150 151 152 153 154 155 156 157 158 159 160 161 162 163 171 172 173 174 179 193 194 195 196 197 198 199 200 201 202 203 204 205 206 207 208 209 210 211 212 213 214 215 216 217 218 219 220 221 222 223 224 225 226 227 228 229 230 231 232 233 234 235 236 237 238 239 240 241 242 243 244 245 246 247 248 249 250 257 276 278 279 280 281 309 339 340 341 342 348 349 350 351 352 365 366 367 370 371 382 383 399 400 402 0
2 3 4 5 6 7 8 9 12 26 27 28 29 30 31 32 33 34 35 36 37 38 39 49 52 53 54 55 56 60 61 101 119 120 129 130 131 132 133 134 139 140 141 142 143 144 145 146 147 148 149 150 151 152 153 154 155 156 157 158 159 160 161 162 163 171 172 173 174 179 193 194 195 196 197 198 199 200 201 202 203 204 205 206 207 208 209 210 211 212 213 214 215 216 217 218 219 220 221 222 223 224 225 226 227 228 229 230 231 232 233 234 235 236 237 238 239 240 241 242 243 244 245 246 247 248 249 250 257 276 278 279 280 281 309 339 340 341 342 348 349 350 351 352 365 366 367 370 371 382 383 399 400 402 0
2 3 4 5 6 7 8 9 12 26 27 28 29 30 31 32 33 34 35 36 37 38 39 49 52 53 54 55 56 60 61 101 119 120 129 130 131 132 133 134 139 140 141 142 143 144 145 146 147 148 149 150 151 152 153 154 155 156 157 158 159 160 161 162 163 171 172 173 174 179 193 194 195 196 197 198 199 200 201 202 203 204 205 206 207 208 209 210 211 212 213 214 215 216 217 218 219 220 221 222 223 224 225 226 227 228 229 230 231 232 233 234 235 236 237 238 239 240 241 242 243 244 245 246 247 248 249 250 257 276 278 279 280 281 309 339 340 341 342 348 349 350 351 352 365 366 367 370 371 382 383 399 400 402 0
2 3 4 5 6 7 8 9 12 26 27 28 29 30 31 32 33 34 35 36 37 38 39 49 52 53 54 55 56 60 61 101 119 120 129 130 131 132 133 134 139 140 141 142 143 144 145 146 147 148 149 150 151 152 153 154 155 156 157 158 159 160 161 162 163 171 172 173 174 179 193 194 195 196 197 198 199 200 201 202 203 204 205 206 207 208 209 210 211 212 213 214 215 216 217 218 219 220 221 222 223 224 225 226 227 228 229 230 231 232 233 234 235 236 237 238 239 240 241 242 243 244 245 246 247 248 249 250 257 276 278 279 280 281 309 339 340 341 342 348 349 350 351 352 365 366 367 370 371 382 383 399 400 402 0
2 3 4 5 6 7 8 9 12 26 27 28 29 30 31 32 33 34 35 36 37 38 39 49 52 53 54 55 56 60 61 101 119 120 129 130 131 132 133 134 139 140 141 142 143 144 145 146 147 148 149 150 151 152 153 154 155 156 157 158 159 160 161 162 163 171 172 173 174 179 193 194 195 196 197 198 199 200 201 202 203 204 205 206 207 208 209 210 211 212 213 214 215 216 217 218 219 220 221 222 223 224 225 226 227 228 229 230 231 232 233 234 235 236 237 238 239 240 241 242 243 244 245 246 247 248 249 250 257 259 276 278 279 280 281 309 337 339 340 341 342 348 349 350 351 352 365 366 367 370 371 382 383 399 400 402 0
2 3 4 5 6 7 8 9 12 26 27 28 29 30 31 32 33 34 35 36 37 38 39 49 52 53 54 55 56 60 61 101 119 120 129 130 131 132 133 134 139 140 141 142 143 144 145 146 147 148 149 150 151 152 153 154 155 156 157 158 159 160 161 162 163 171 172 173 174 179 193 194 195 196 197 198 199 200 201 202 203 204 205 206 207 208 209 210 211 212 213 214 215 216 217 218 219 220 221 222 223 224 225 226 227 228 229 230 231 232 233 234 235 236 237 238 239 240 241 242 243 244 245 246 247 248 249 250 257 259 260 276 278 279 280 281 309 337 339 340 341 342 348 349 350 351 352 365 366 367 370 371 382 383 399 400 402 0
2 3 4 5 6 7 8 9 12 26 27 28 29 30 31 32 33 34 35 36 37 38 39 49 52 53 54 55 56 60 61 101 119 120 129 130 131 132 133 134 139 140 141 142 143 144 145 146 147 148 149 150 151 152 153 154 155 156 157 158 159 160 161 162 163 171 172 173 174 179 193 194 195 196 197 198 199 200 201 202 203 204 205 206 207 208 209 210 211 212 213 214 215 216 217 218 219 220 221 222 223 224 225 226 227 228 229 230 231 232 233 234 235 236 237 238 239 240 241 242 243 244 245 246 247 248 249 250 257 259 276 278 279 280 281 309 337 339 340 341 342 348 349 350 351 352 365 366 367 370 371 382 383 399 400 402 0
2 3 4 5 6 7 8 9 12 26 27 28 29 30 31 32 33 34 35 36 37 38 39 49 52 53 54 55 56 60 61 101 119 120 129 130 131 132 133 134 139 140 141 142 143 144 145 146 147 148 149 150 151 152 153 154 155 156 157 158 159 160 161 162 163 171 172 173 174 179 193 194 195 196 197 198 199 200 201 202 203 204 205 206 207 208 209 210 211 212 213 214 215 216 217 218 219 220 221 222 223 224 225 226 227 228 229 230 231 232 233 234 235 236 237 238 239 240 241 242 243 244 245 246 247 248 249 250 257 259 260 276 278 279 280 281 309 337 339 340 341 342 348 349 350 351 352 365 366 367 370 371 382 383 399 400 402 0
2 3 4 5 6 7 8 9 12 26 27 28 29 30 31 32 33 34 35 36 37 38 39 49 52 53 54 55 56 60 61 101 120 129 130 131 132 133 134 139 140 141 142 143 144 145 146 147 148 149 150 151 152 153 154 155 156 157 158 159 160 161 162 163 171 172 173 174 179 193 194 195 196 197 198 199 200 201 202 203 204 205 206 207 208 209 210 211 212 213 214 215 216 217 218 219 220 221 222 223 224 225 226 227 228 229 230 231 232 233 234 235 236 237 238 239 240 241 242 243 244 245 246 247 248 249 250 257 276 278 279 280 281 339 340 341 342 348 349 350 351 352 365 366 367 370 371 382 383 399 400 402 0
2 3 4 5 6 7 8 9 12 26 27 28 29 30 31 32 33 34 35 36 37 38 39 49 52 53 54 55 56 60 61 101 120 129 130 131 132 133 134 139 140 141 142 143 144 145 146 147 148 149 150 151 152 153 154 155 156 157 158 159 160 161 162 163 171 172 173 174 179 193 194 195 196 197 198 199 200 201 202 203 204 205 206 207 208 209 210 211 212 213 214 215 216 217 218 219 220 221 222 223 224 225 226 227 228 229 230 231 232 233 234 235 236 237 238 239 240 241 242 243 244 245 246 247 248 249 250 257 276 278 279 280 281 339 340 341 342 348 349 350 351 352 365 366 367 370 371 382 383 399 400 402 0
2 3 4 5 6 7 8 9 12 26 27 28 29 30 31 32 33 34 35 36 37 38 39 49 52 53 54 55 56 60 61 101 119 120 129 130 131 132 133 134 139 140 141 142 143 144 145 146 147 148 149 150 151 152 153 154 155 156 157 158 159 160 161 162 163 171 172 173 174 179 193 194 195 196 197 198 199 200 201 202 203 204 205 206 207 208 209 210 211 212 213 214 215 216 217 218 219 220 221 222 223 224 225 226 227 228 229 230 231 232 233 234 235 236 237 238 239 240 241 242 243 244 245 246 247 248 249 250 257 276 278 279 280 281 309 339 340 341 342 348 349 350 351 352 365 366 367 370 371 382 383 399 400 402 0
2 3 4 5 6 7 8 9 12 26 27 28 29 30 31 32 33 34 35 36 37 38 39 49 52 53 54 55 56 60 61 101 119 120 129 130 131 132 133 134 139 140 141 142 143 144 145 146 147 148 149 150 151 152 153 154 155 156 157 158 159 160 161 162 163 171 172 173 174 179 193 194 195 196 197 198 199 200 201 202 203 204 205 206 207 208 209 210 211 212 213 214 215 216 217 218 219 220 221 222 223 224 225 226 227 228 229 230 231 232 233 234 235 236 237 238 239 240 241 242 243 244 245 246 247 248 249 250 257 276 278 279 280 281 309 339 340 341 342 348 349 350 351 352 365 366 367 370 371 382 383 399 400 402 0
2 3 4 5 6 7 8 9 12 26 27 28 29 30 31 32 33 34 35 36 37 38 39 49 52 53 54 55 56 60 61 101 119 120 129 130 131 132 133 134 139 140 141 142 143 144 145 146 147 148 149 150 151 152 153 154 155 156 157 158 159 160 161 162 163 171 172 173 174 179 193 194 195 196 197 198 199 200 201 202 203 204 205 206 207 208 209 210 211 212 213 214 215 216 217 218 219 220 221 222 223 224 225 226 227 228 229 230 231 232 233 234 235 236 237 238 239 240 241 242 243 244 245 246 247 248 249 250 257 276 278 279 280 281 309 339 340 341 342 348 349 350 351 352 365 366 367 370 371 382 383 399 400 402 0
20 21 46 57 58 59 79 80 110 118 164 165 166 264 265 282 283 284 285 311 314 315 316 317 318 324 329 338 363 364 374 375 376 377 389 390 391 401 405 410 0
20 21 46 57 58 59 79 80 110 118 164 165 166 264 265 282 283 284 285 311 314 315 316 317 318 324 329 338 361 363 364 374 375 376 377 389 390 391 395 401 405 410 0
20 21 46 57 58 59 79 80 112 118 164 165 166 264 265 282 283 284 285 311 314 315 316 317 318 324 325 326 328 329 338 361 363 364 374 375 376 377 380 389 390 391 395 401 405 409 410 0
17 167 168 169 170 251 252 253 254 255 256 259 260 288 289 290 291 292 295 306 307 308 337 368 388 392 0
17 167 168 169 170 251 252 253 254 255 256 259 260 288 289 290 291 292 295 306 307 308 337 368 388 392 0
17 167 168 169 170 251 252 253 254 255 256 259 260 288 289 290 291 292 295 306 307 308 337 368 388 392 0
17 167 168 169 170 251 252 253 254 255 256 259 260 288 289 290 291 292 295 306 307 308 337 368 388 392 0
2 3 4 5 6 7 8 9 12 26 27 28 29 30 31 32 33 34 35 36 37 38 39 49 52 53 54 55 56 60 61 101 119 120 129 130 131 132 133 134 139 140 141 142 143 144 145 146 147 148 149 150 151 152 153 154 155 156 157 158 159 160 161 162 163 171 172 173 174 179 193 194 195 196 197 198 199 200 201 202 203 204 205 206 207 208 209 210 211 212 213 214 215 216 217 218 219 220 221 222 223 224 225 226 227 228 229 230 231 232 233 234 235 236 237 238 239 240 241 242 243 244 245 246 247 248 249 250 257 276 278 280 281 339 340 341 342 348 349 350 351 352 365 366 367 370 371 382 383 399 400 402 0
2 3 4 5 6 7 8 9 12 26 27 28 29 30 31 32 33 34 35 36 37 38 39 49 52 53 54 55 56 60 61 101 119 120 129 130 131 132 133 134 139 140 141 142 143 144 145 146 147 148 149 150 151 152 153 154 155 156 157 158 159 160 161 162 163 171 172 173 174 179 193 194 195 196 197 198 199 200 201 202 203 204 205 206 207 208 209 210 211 212 213 214 215 216 217 218 219 220 221 222 223 224 225 226 227 228 229 230 231 232 233 234 235 236 237 238 239 240 241 242 243 244 245 246 247 248 249 250 257 276 278 279 280 281 309 339 340 341 342 348 349 350 351 352 365 366 367 370 371 382 383 399 400 402 0
2 3 4 5 6 7 8 9 12 26 27 28 29 30 31 32 33 34 35 36 37 38 39 49 52 53 54 55 56 60 61 101 119 120 129 130 131 132 133 134 139 140 141 142 143 144 145 146 147 148 149 150 151 152 153 154 155 156 157 158 159 160 161 162 163 171 172 173 174 179 193 194 195 196 197 198 199 200 201 202 203 204 205 206 207 208 209 210 211 212 213 214 215 216 217 218 219 220 221 222 223 224 225 226 227 228 229 230 231 232 233 234 235 236 237 238 239 240 241 242 243 244 245 246 247 248 249 250 257 276 278 279 280 281 309 339 340 341 342 348 349 350 351 352 365 366 367 370 371 382 383 399 400 402 0
2 3 4 5 6 7 8 9 12 26 27 28 29 30 31 32 33 34 35 36 37 38 39 49 52 53 54 55 56 60 61 101 119 120 129 130 131 132 133 134 139 140 141 142 143 144 145 146 147 148 149 150 151 152 153 154 155 156 157 158 159 160 161 162 163 171 172 173 174 179 193 194 195 196 197 198 199 200 201 202 203 204 205 206 207 208 209 210 211 212 213 214 215 216 217 218 219 220 221 222 223 224 225 226 227 228 229 230 231 232 233 234 235 236 237 238 239 240 241 242 243 244 245 246 247 248 249 250 257 276 278 279 280 281 339 340 341 342 348 349 350 351 352 365 366 367 370 371 382 383 399 400 402 0
10 11 13 64 65 66 67 68 69 70 71 72 73 105 106 107 136 175 176 177 178 287 303 304 305 343 344 346 362 372 373 385 396 0
10 11 13 64 65 66 67 68 69 70 71 72 73 105 106 107 136 175 176 177 178 287 303 304 305 343 344 346 362 372 373 385 396 0
10 11 13 64 65 66 67 68 69 70 71 72 73 105 106 107 136 175 176 177 178 287 303 304 305 343 344 346 362 372 373 385 396 0
10 11 13 64 65 66 67 68 69 70 71 72 73 105 106 107 136 175 176 177 178 287 303 304 305 343 344 346 362 372 373 385 396 0
2 3 4 5 6 7 8 9 12 26 27 28 29 30 31 32 33 34 35 36 37 38 39 49 52 53 54 55 56 60 61 101 119 120 129 130 131 132 133 134 139 140 141 142 143 144 145 146 147 148 149 150 151 152 153 154 155 156 157 158 159 160 161 162 163 171 172 173 174 179 193 194 195 196 197 198 199 200 201 202 203 204 205 206 207 208 209 210 211 212 213 214 215 216 217 218 219 220 221 222 223 224 225 226 227 228 229 230 231 232 233 234 235 236 237 238 239 240 241 242 243 244 245 246 247 248 249 250 257 276 278 279 280 281 309 339 340 341 342 348 349 350 351 352 365 366 367 370 371 382 383 399 400 402 0
42 43 74 75 77 88 89 90 108 122 125 180 181 182 188 189 190 191 192 277 296 299 300 334 335 336 345 353 355 386 387 403 416 0
42 43 74 75 77 102 108 122 125 180 181 182 188 189 190 191 192 275 277 296 299 300 330 333 334 335 336 345 353 355 386 387 397 403 416 0
42 43 74 75 77 108 122 125 180 181 182 188 189 190 191 192 277 296 299 300 334 335 336 345 353 355 386 387 403 416 0
14 15 16 41 44 47 48 51 57 62 63 76 81 82 83 84 85 86 87 88 89 90 91 92 93 94 95 96 97 98 99 109 110 111 118 126 127 128 183 184 185 186 187 314 315 316 317 329 356 363 374 384 393 405 417 0
14 15 16 41 44 47 48 51 57 62 63 76 81 82 83 84 85 86 87 88 89 90 91 92 93 94 95 96 97 98 99 109 110 111 118 126 127 128 183 184 185 186 187 314 315 316 317 329 356 363 374 384 393 405 417 0
14 15 16 41 44 47 48 51 57 62 63 76 81 82 83 84 85 86 87 88 89 90 91 92 93 94 95 96 97 98 99 109 110 111 118 126 127 128 183 184 185 186 187 314 315 316 317 329 356 363 374 384 393 405 417 0
14 15 16 41 44 47 48 51 57 62 63 76 81 82 83 84 85 86 87 88 89 90 91 92 93 94 95 96 97 98 99 109 110 111 118 126 127 128 183 184 185 186 187 314 315 316 317 329 356 363 374 384 393 405 417 0
14 15 16 41 44 47 48 51 57 62 63 76 81 82 83 84 85 86 87 88 89 90 91 92 93 94 95 96 97 98 99 109 110 111 118 126 127 128 183 184 185 186 187 314 315 316 317 329 356 363 374 384 393 405 417 0
42 43 74 75 77 108 122 125 180 181 182 188 189 190 191 192 277 296 299 300 334 335 336 345 353 355 386 387 403 416 0
42 43 74 75 77 108 122 125 180 181 182 188 189 190 191 192 277 296 299 300 334 335 336 345 353 355 386 387 403 416 0
42 43 74 75 77 108 125 180 181 182 188 189 190 191 192 277 296 299 300 334 335 336 345 353 355 386 387 403 416 0
42 43 74 75 77 108 125 180 181 182 188 189 190 191 192 277 296 299 300 334 335 336 345 353 355 386 387 403 416 0
42 43 74 75 77 108 125 180 181 182 188 189 190 191 192 277 296 299 300 334 335 336 345 353 355 386 387 403 416 0
2 3 4 5 6 7 8 9 12 26 27 28 29 30 31 32 33 34 35 36 37 38 39 49 52 53 54 55 56 60 61 101 119 120 129 130 131 132 133 134 139 140 141 142 143 144 145 146 147 148 149 150 151 152 153 154 155 156 157 158 159 160 161 162 163 171 172 173 174 179 193 194 195 196 197 198 199 200 201 202 203 204 205 206 207 208 209 210 211 212 213 214 215 216 217 218 219 220 221 222 223 224 225 226 227 228 229 230 231 232 233 234 235 236 237 238 239 240 241 242 243 244 245 246 247 248 249 250 257 276 278 279 280 281 309 339 340 341 342 348 349 350 351 352 365 366 367 370 371 382 383 399 400 402 0
2 3 4 5 6 7 8 9 12 26 27 28 29 30 31 32 33 34 35 36 37 38 39 49 52 53 54 55 56 60 61 101 119 120 129 130 131 132 133 134 139 140 141 142 143 144 145 146 147 148 149 150 151 152 153 154 155 156 157 158 159 160 161 162 163 171 172 173 174 179 193 194 195 196 197 198 199 200 201 202 203 204 205 206 207 208 209 210 211 212 213 214 215 216 217 218 219 220 221 222 223 224 225 226 227 228 229 230 231 232 233 234 235 236 237 238 239 240 241 242 243 244 245 246 247 248 249 250 257 276 278 279 280 281 309 339 340 341 342 348 349 350 351 352 365 366 367 370 371 382 383 399 400 402 0
2 3 4 5 6 7 8 9 12 26 27 28 29 30 31 32 33 34 35 36 37 38 39 49 52 53 54 55 56 60 61 101 119 120 129 130 131 132 133 134 139 140 141 142 143 144 145 146 147 148 149 150 151 152 153 154 155 156 157 158 159 160 161 162 163 171 172 173 174 179 193 194 195 196 197 198 199 200 201 202 203 204 205 206 207 208 209 210 211 212 213 214 215 216 217 218 219 220 221 222 223 224 225 226 227 228 229 230 231 232 233 234 235 236 237 238 239 240 241 242 243 244 245 246 247 248 249 250 257 276 278 279 280 281 309 339 340 341 342 348 349 350 351 352 365 366 367 370 371 382 383 399 400 402 0
2 3 4 5 6 7 8 9 12 26 27 28 29 30 31 32 33 34 35 36 37 38 39 49 52 53 54 55 56 60 61 101 119 120 129 130 131 132 133 134 139 140 141 142 143 144 145 146 147 148 149 150 151 152 153 154 155 156 157 158 159 160 161 162 163 171 172 173 174 179 193 194 195 196 197 198 199 200 201 202 203 204 205 206 207 208 209 210 211 212 213 214 215 216 217 218 219 220 221 222 223 224 225 226 227 228 229 230 231 232 233 234 235 236 237 238 239 240 241 242 243 244 245 246 247 248 249 250 257 276 278 279 280 281 309 339 340 341 342 348 349 350 351 352 365 366 367 370 371 382 383 399 400 402 0
2 3 4 5 6 7 8 9 12 26 27 28 29 30 31 32 33 34 35 36 37 38 39 49 52 53 54 55 56 60 61 101 119 120 129 130 131 132 133 134 139 140 141 142 143 144 145 146 147 148 149 150 151 152 153 154 155 156 157 158 159 160 161 162 163 171 172 173 174 179 193 194 195 196 197 198 199 200 201 202 203 204 205 206 207 208 209 210 211 212 213 214 215 216 217 218 219 220 221 222 223 224 225 226 227 228 229 230 231 232 233 234 235 236 237 238 239 240 241 242 243 244 245 246 247 248 249 250 257 259 260 276 278 279 280 281 309 337 339 340 341 342 348 349 350 351 352 365 366 367 370 371 382 383 399 400 402 0
2 3 4 5 6 7 8 9 12 26 27 28 29 30 31 32 33 34 35 36 37 38 39 49 52 53 54 55 56 60 61 101 119 120 129 130 131 132 133 134 139 140 141 142 143 144 145 146 147 148 149 150 151 152 153 154 155 156 157 158 159 160 161 162 163 171 172 173 174 179 193 194 195 196 197 198 199 200 201 202 203 204 205 206 207 208 209 210 211 212 213 214 215 216 217 218 219 220 221 222 223 224 225 226 227 228 229 230 231 232 233 234 235 236 237 238 239 240 241 242 243 244 245 246 247 248 249 250 257 259 276 278 279 280 281 309 337 339 340 341 342 348 349 350 351 352 365 366 367 370 371 382 383 399 400 402 0
2 3 4 5 6 7 8 9 12 26 27 28 29 30 31 32 33 34 35 36 37 38 39 49 52 53 54 55 56 60 61 101 119 120 129 130 131 132 133 134 139 140 141 142 143 144 145 146 147 148 149 150 151 152 153 154 155 156 157 158 159 160 161 162 163 171 172 173 174 179 193 194 195 196 197 198 199 200 201 202 203 204 205 206 207 208 209 210 211 212 213 214 215 216 217 218 219 220 221 222 223 224 225 226 227 228 229 230 231 232 233 234 235 236 237 238 239 240 241 242 243 244 245 246 247 248 249 250 257 259 276 278 279 280 281 309 337 339 340 341 342 348 349 350 351 352 365 366 367 370 371 382 383 399 400 402 0
2 3 4 5 6 7 8 9 12 26 27 28 29 30 31 32 33 34 35 36 37 38 39 49 52 53 54 55 56 60 61 101 119 120 129 130 131 132 133 134 139 140 141 142 143 144 145 146 147 148 149 150 151 152 153 154 155 156 157 158 159 160 161 162 163 171 172 173 174 179 193 194 195 196 197 198 199 200 201 202 203 204 205 206 207 208 209 210 211 212 213 214 215 216 217 218 219 220 221 222 223 224 225 226 227 228 229 230 231 232 233 234 235 236 237 238 239 240 241 242 243 244 245 246 247 248 249 250 257 259 276 278 279 280 281 309 337 339 340 341 342 348 349 350 351 352 365 366 367 370 371 382 383 399 400 402 0
2 3 4 5 6 7 8 9 12 26 27 28 29 30 31 32 33 34 35 36 37 38 39 49 52 53 54 55 56 60 61 101 119 120 129 130 131 132 133 134 139 140 141 142 143 144 145 146 147 148 149 150 151 152 153 154 155 156 157 158 159 160 161 162 163 171 172 173 174 179 193 194 195 196 197 198 199 200 201 202 203 204 205 206 207 208 209 210 211 212 213 214 215 216 217 218 219 220 221 222 223 224 225 226 227 228 229 230 231 232 233 234 235 236 237 238 239 240 241 242 243 244 245 246 247 248 249 250 257 259 276 278 279 280 281 309 339 340 341 342 348 349 350 351 352 365 366 367 370 371 382 383 399 400 402 0
2 3 4 5 6 7 8 9 12 26 27 28 29 30 31 32 33 34 35 36 37 38 39 49 52 53 54 55 56 60 61 101 119 120 129 130 131 132 133 134 139 140 141 142 143 144 145 146 147 148 149 150 151 152 153 154 155 156 157 158 159 160 161 162 163 171 172 173 174 179 193 194 195 196 197 198 199 200 201 202 203 204 205 206 207 208 209 210 211 212 213 214 215 216 217 218 219 220 221 222 223 224 225 226 227 228 229 230 231 232 233 234 235 236 237 238 239 240 241 242 243 244 245 246 247 248 249 250 257 276 278 279 280 281 309 339 340 341 342 348 349 350 351 352 365 366 367 370 371 382 383 399 400 402 0
2 3 4 5 6 7 8 9 12 26 27 28 29 30 31 32 33 34 35 36 37 38 39 49 52 53 54 55 56 60 61 101 119 120 129 130 131 132 133 134 139 140 141 142 143 144 145 146 147 148 149 150 151 152 153 154 155 156 157 158 159 160 161 162 163 171 172 173 174 179 193 194 195 196 197 198 199 200 201 202 203 204 205 206 207 208 209 210 211 212 213 214 215 216 217 218 219 220 221 222 223 224 225 226 227 228 229 230 231 232 233 234 235 236 237 238 239 240 241 242 243 244 245 246 247 248 249 250 257 259 276 278 279 280 281 309 339 340 341 342 348 349 350 351 352 365 366 367 370 371 382 383 399 400 402 0
2 3 4 5 6 7 8 9 12 26 27 28 29 30 31 32 33 34 35 36 37 38 39 49 52 53 54 55 56 60 61 101 119 120 129 130 131 132 133 134 139 140 141 142 143 144 145 146 147 148 149 150 151 152 153 154 155 156 157 158 159 160 161 162 163 171 172 173 174 179 193 194 195 196 197 198 199 200 201 202 203 204 205 206 207 208 209 210 211 212 213 214 215 216 217 218 219 220 221 222 223 224 225 226 227 228 229 230 231 232 233 234 235 236 237 238 239 240 241 242 243 244 245 246 247 248 249 250 257 276 278 279 280 281 309 339 340 341 342 348 349 350 351 352 365 366 367 370 371 382 383 399 400 402 0
2 3 4 5 6 7 8 9 12 26 27 28 29 30 31 32 33 34 35 36 37 38 39 49 52 53 54 55 56 60 61 101 119 120 129 130 131 132 133 134 139 140 141 142 143 144 145 146 147 148 149 150 151 152 153 154 155 156 157 158 159 160 161 162 163 171 172 173 174 179 193 194 195 196 197 198 199 200 201 202 203 204 205 206 207 208 209 210 211 212 213 214 215 216 217 218 219 220 221 222 223 224 225 226 227 228 229 230 231 232 233 234 235 236 237 238 239 240 241 242 243 244 245 246 247 248 249 250 257 259 276 278 279 280 281 309 339 340 341 342 348 349 350 351 352 365 366 367 370 371 382 383 399 400 402 0
2 3 4 5 6 7 8 9 12 26 27 28 29 30 31 32 33 34 35 36 37 38 39 49 52 53 54 55 56 60 61 101 119 120 129 130 131 132 133 134 139 140 141 142 143 144 145 146 147 148 149 150 151 152 153 154 155 156 157 158 159 160 161 162 163 171 172 173 174 179 193 194 195 196 197 198 199 200 201 202 203 204 205 206 207 208 209 210 211 212 213 214 215 216 217 218 219 220 221 222 223 224 225 226 227 228 229 230 231 232 233 234 235 236 237 238 239 240 241 242 243 244 245 246 247 248 249 250 257 276 278 279 280 281 309 339 340 341 342 348 349 350 351 352 365 366 367 370 371 382 383 399 400 402 0
2 3 4 5 6 7 8 9 12 26 27 28 29 30 31 32 33 34 35 36 37 38 39 49 52 53 54 55 56 60 61 101 119 120 129 130 131 132 133 134 139 140 141 142 143 144 145 146 147 148 149 150 151 152 153 154 155 156 157 158 159 160 161 162 163 171 172 173 174 179 193 194 195 196 197 198 199 200 201 202 203 204 205 206 207 208 209 210 211 212 213 214 215 216 217 218 219 220 221 222 223 224 225 226 227 228 229 230 231 232 233 234 235 236 237 238 239 240 241 242 243 244 245 246 247 248 249 250 257 276 278 279 280 281 309 339 340 341 342 348 349 350 351 352 365 366 367 370 371 382 383 399 400 402 0
2 3 4 5 6 7 8 9 12 26 27 28 29 30 31 32 33 34 35 36 37 38 39 49 52 53 54 55 56 60 61 101 119 120 129 130 131 132 133 134 139 140 141 142 143 144 145 146 147 148 149 150 151 152 153 154 155 156 157 158 159 160 161 162 163 171 172 173 174 179 193 194 195 196 197 198 199 200 201 202 203 204 205 206 207 208 209 210 211 212 213 214 215 216 217 218 219 220 221 222 223 224 225 226 227 228 229 230 231 232 233 234 235 236 237 238 239 240 241 242 243 244 245 246 247 248 249 250 257 259 276 278 279 280 281 309 339 340 341 342 348 349 350 351 352 365 366 367 370 371 382 383 399 400 402 0
2 3 4 5 6 7 8 9 12 26 27 28 29 30 31 32 33 34 35 36 37 38 39 49 52 53 54 55 56 60 61 101 119 120 129 130 131 132 133 134 139 140 141 142 143 144 145 146 147 148 149 150 151 152 153 154 155 156 157 158 159 160 161 162 163 171 172 173 174 179 193 194 195 196 197 198 199 200 201 202 203 204 205 206 207 208 209 210 211 212 213 214 215 216 217 218 219 220 221 222 223 224 225 226 227 228 229 230 231 232 233 234 235 236 237 238 239 240 241 242 243 244 245 246 247 248 249 250 257 259 276 278 279 280 281 309 339 340 341 342 348 349 350 351 352 365 366 367 370 371 382 383 399 400 402 0
2 3 4 5 6 7 8 9 12 26 27 28 29 30 31 32 33 34 35 36 37 38 39 49 52 53 54 55 56 60 61 101 119 120 129 130 131 132 133 134 139 140 141 142 143 144 145 146 147 148 149 150 151 152 153 154 155 156 157 158 159 160 161 162 163 171 172 173 174 179 193 194 195 196 197 198 199 200 201 202 203 204 205 206 207 208 209 210 211 212 213 214 215 216 217 218 219 220 221 222 223 224 225 226 227 228 229 230 231 232 233 234 235 236 237 238 239 240 241 242 243 244 245 246 247 248 249 250 257 276 278 279 280 281 309 339 340 341 342 348 349 350 351 352 365 366 367 370 371 382 383 399 400 402 0
2 3 4 5 6 7 8 9 12 26 27 28 29 30 31 32 33 34 35 36 37 38 39 49 52 53 54 55 56 60 61 101 119 120 129 130 131 132 133 134 139 140 141 142 143 144 145 146 147 148 149 150 151 152 153 154 155 156 157 158 159 160 161 162 163 171 172 173 174 179 193 194 195 196 197 198 199 200 201 202 203 204 205 206 207 208 209 210 211 212 213 214 215 216 217 218 219 220 221 222 223 224 225 226 227 228 229 230 231 232 233 234 235 236 237 238 239 240 241 242 243 244 245 246 247 248 249 250 257 276 278 279 280 281 309 339 340 341 342 348 349 350 351 352 365 366 367 370 371 382 383 399 400 402 0
2 3 4 5 6 7 8 9 12 26 27 28 29 30 31 32 33 34 35 36 37 38 39 49 52 53 54 55 56 60 61 101 119 120 129 130 131 132 133 134 139 140 141 142 143 144 145 146 147 148 149 150 151 152 153 154 155 156 157 158 159 160 161 162 163 171 172 173 174 179 193 194 195 196 197 198 199 200 201 202 203 204 205 206 207 208 209 210 211 212 213 214 215 216 217 218 219 220 221 222 223 224 225 226 227 228 229 230 231 232 233 234 235 236 237 238 239 240 241 242 243 244 245 246 247 248 249 250 257 276 278 279 280 281 309 339 340 341 342 348 349 350 351 352 365 366 367 370 371 382 383 399 400 402 0
2 3 4 5 6 7 8 9 12 26 27 28 29 30 31 32 33 34 35 36 37 38 39 49 52 53 54 55 56 60 61 101 119 120 129 130 131 132 133 134 139 140 141 142 143 144 145 146 147 148 149 150 151 152 153 154 155 156 157 158 159 160 161 162 163 171 172 173 174 179 193 194 195 196 197 198 199 200 201 202 203 204 205 206 207 208 209 210 211 212 213 214 215 216 217 218 219 220 221 222 223 224 225 226 227 228 229 230 231 232 233 234 235 236 237 238 239 240 241 242 243 244 245 246 247 248 249 250 257 259 276 278 279 280 281 309 339 340 341 342 348 349 350 351 352 365 366 367 370 371 382 383 399 400 402 0
2 3 4 5 6 7 8 9 12 26 27 28 29 30 31 32 33 34 35 36 37 38 39 49 52 53 54 55 56 60 61 101 119 120 129 130 131 132 133 134 139 140 141 142 143 144 145 146 147 148 149 150 151 152 153 154 155 156 157 158 159 160 161 162 163 171 172 173 174 179 193 194 195 196 197 198 199 200 201 202 203 204 205 206 207 208 209 210 211 212 213 214 215 216 217 218 219 220 221 222 223 224 225 226 227 228 229 230 231 232 233 234 235 236 237 238 239 240 241 242 243 244 245 246 247 248 249 250 257 276 278 279 280 281 309 339 340 341 342 348 349 350 351 352 365 366 367 370 371 382 383 399 400 402 0
2 3 4 5 6 7 8 9 12 26 27 28 29 30 31 32 33 34 35 36 37 38 39 49 52 53 54 55 56 60 61 101 119 120 129 130 131 132 133 134 139 140 141 142 143 144 145 146 147 148 149 150 151 152 153 154 155 156 157 158 159 160 161 162 163 171 172 173 174 179 193 194 195 196 197 198 199 200 201 202 203 204 205 206 207 208 209 210 211 212 213 214 215 216 217 218 219 220 221 222 223 224 225 226 227 228 229 230 231 232 233 234 235 236 237 238 239 240 241 242 243 244 245 246 247 248 249 250 257 276 278 279 280 281 309 339 340 341 342 348 349 350 351 352 365 366 367 370 371 382 383 399 400 402 0
2 3 4 5 6 7 8 9 12 26 27 28 29 30 31 32 33 34 35 36 37 38 39 49 52 53 54 55 56 60 61 101 119 120 129 130 131 132 133 134 139 140 141 142 143 144 145 146 147 148 149 150 151 152 153 154 155 156 157 158 159 160 161 162 163 171 172 173 174 179 193 194 195 196 197 198 199 200 201 202 203 204 205 206 207 208 209 210 211 212 213 214 215 216 217 218 219 220 221 222 223 224 225 226 227 228 229 230 231 232 233 234 235 236 237 238 239 240 241 242 243 244 245 246 247 248 249 250 257 276 278 279 280 281 309 339 340 341 342 348 349 350 351 352 365 366 367 370 371 382 383 399 400 402 0
2 3 4 5 6 7 8 9 12 26 27 28 29 30 31 32 33 34 35 36 37 38 39 49 52 53 54 55 56 60 61 101 119 120 129 130 131 132 133 134 139 140 141 142 143 144 145 146 147 148 149 150 151 152 153 154 155 156 157 158 159 160 161 162 163 171 172 173 174 179 193 194 195 196 197 198 199 200 201 202 203 204 205 206 207 208 209 210 211 212 213 214 215 216 217 218 219 220 221 222 223 224 225 226 227 228 229 230 231 232 233 234 235 236 237 238 239 240 241 242 243 244 245 246 247 248 249 250 257 276 278 279 280 281 309 339 340 341 342 348 349 350 351 352 365 366 367 370 371 382 383 399 400 402 0
2 3 4 5 6 7 8 9 12 26 27 28 29 30 31 32 33 34 35 36 37 38 39 49 52 53 54 55 56 60 61 101 119 120 129 130 131 132 133 134 139 140 141 142 143 144 145 146 147 148 149 150 151 152 153 154 155 156 157 158 159 160 161 162 163 171 172 173 174 179 193 194 195 196 197 198 199 200 201 202 203 204 205 206 207 208 209 210 211 212 213 214 215 216 217 218 219 220 221 222 223 224 225 226 227 228 229 230 231 232 233 234 235 236 237 238 239 240 241 242 243 244 245 246 247 248 249 250 257 276 278 279 280 281 309 339 340 341 342 348 349 350 351 352 365 366 367 370 371 382 383 399 400 402 0
2 3 4 5 6 7 8 9 12 26 27 28 29 30 31 32 33 34 35 36 37 38 39 49 52 53 54 55 56 60 61 101 119 120 129 130 131 132 133 134 139 140 141 142 143 144 145 146 147 148 149 150 151 152 153 154 155 156 157 158 159 160 161 162 163 171 172 173 174 179 193 194 195 196 197 198 199 200 201 202 203 204 205 206 207 208 209 210 211 212 213 214 215 216 217 218 219 220 221 222 223 224 225 226 227 228 229 230 231 232 233 234 235 236 237 238 239 240 241 242 243 244 245 246 247 248 249 250 257 276 278 279 280 281 309 339 340 341 342 348 349 350 351 352 365 366 367 370 371 382 383 399 400 402 0
2 3 4 5 6 7 8 9 12 26 27 28 29 30 31 32 33 34 35 36 37 38 39 49 52 53 54 55 56 60 61 101 119 120 129 130 131 132 133 134 139 140 141 142 143 144 145 146 147 148 149 150 151 152 153 154 155 156 157 158 159 160 161 162 163 171 172 173 174 179 193 194 195 196 197 198 199 200 201 202 203 204 205 206 207 208 209 210 211 212 213 214 215 216 217 218 219 220 221 222 223 224 225 226 227 228 229 230 231 232 233 234 235 236 237 238 239 240 241 242 243 244 245 246 247 248 249 250 257 276 278 279 280 281 309 339 340 341 342 348 349 350 351 352 365 366 367 370 371 382 383 399 400 402 0
2 3 4 5 6 7 8 9 12 26 27 28 29 30 31 32 33 34 35 36 37 38 39 49 52 53 54 55 56 60 61 101 119 120 129 130 131 132 133 134 139 140 141 142 143 144 145 146 147 148 149 150 151 152 153 154 155 156 157 158 159 160 161 162 163 171 172 173 174 179 193 194 195 196 197 198 199 200 201 202 203 204 205 206 207 208 209 210 211 212 213 214 215 216 217 218 219 220 221 222 223 224 225 226 227 228 229 230 231 232 233 234 235 236 237 238 239 240 241 242 243 244 245 246 247 248 249 250 257 276 278 279 280 281 309 339 340 341 342 348 349 350 351 352 365 366 367 370 371 382 383 399 400 402 0
2 3 4 5 6 7 8 9 12 26 27 28 29 30 31 32 33 34 35 36 37 38 39 49 52 53 54 55 56 60 61 101 119 120 129 130 131 132 133 134 139 140 141 142 143 144 145 146 147 148 149 150 151 152 153 154 155 156 157 158 159 160 161 162 163 171 172 173 174 179 193 194 195 196 197 198 199 200 201 202 203 204 205 206 207 208 209 210 211 212 213 214 215 216 217 218 219 220 221 222 223 224 225 226 227 228 229 230 231 232 233 234 235 236 237 238 239 240 241 242 243 244 245 246 247 248 249 250 257 276 278 279 280 281 309 339 340 341 342 348 349 350 351 352 365 366 367 370 371 382 383 399 400 402 0
2 3 4 5 6 7 8 9 12 26 27 28 29 30 31 32 33 34 35 36 37 38 39 49 52 53 54 55 56 60 61 101 119 120 129 130 131 132 133 134 139 140 141 142 143 144 145 146 147 148 149 150 151 152 153 154 155 156 157 158 159 160 161 162 163 171 172 173 174 179 193 194 195 196 197 198 199 200 201 202 203 204 205 206 207 208 209 210 211 212 213 214 215 216 217 218 219 220 221 222 223 224 225 226 227 228 229 230 231 232 233 234 235 236 237 238 239 240 241 242 243 244 245 246 247 248 249 250 257 276 278 279 280 281 309 339 340 341 342 348 349 350 351 352 365 366 367 370 371 382 383 399 400 402 0
2 3 4 5 6 7 8 9 12 26 27 28 29 30 31 32 33 34 35 36 37 38 39 49 52 53 54 55 56 60 61 101 119 120 129 130 131 132 133 134 139 140 141 142 143 144 145 146 147 148 149 150 151 152 153 154 155 156 157 158 159 160 161 162 163 171 172 173 174 179 193 194 195 196 197 198 199 200 201 202 203 204 205 206 207 208 209 210 211 212 213 214 215 216 217 218 219 220 221 222 223 224 225 226 227 228 229 230 231 232 233 234 235 236 237 238 239 240 241 242 243 244 245 246 247 248 249 250 257 276 278 279 280 281 309 339 340 341 342 348 349 350 351 352 365 366 367 370 371 382 383 399 400 402 0
2 3 4 5 6 7 8 9 12 26 27 28 29 30 31 32 33 34 35 36 37 38 39 49 52 53 54 55 56 60 61 101 119 120 129 130 131 132 133 134 139 140 141 142 143 144 145 146 147 148 149 150 151 152 153 154 155 156 157 158 159 160 161 162 163 171 172 173 174 179 193 194 195 196 197 198 199 200 201 202 203 204 205 206 207 208 209 210 211 212 213 214 215 216 217 218 219 220 221 222 223 224 225 226 227 228 229 230 231 232 233 234 235 236 237 238 239 240 241 242 243 244 245 246 247 248 249 250 257 276 278 279 280 281 309 339 340 341 342 348 349 350 351 352 365 366 367 370 371 382 383 399 400 402 0
2 3 4 5 6 7 8 9 12 26 27 28 29 30 31 32 33 34 35 36 37 38 39 49 52 53 54 55 56 60 61 101 119 120 129 130 131 132 133 134 139 140 141 142 143 144 145 146 147 148 149 150 151 152 153 154 155 156 157 158 159 160 161 162 163 171 172 173 174 179 193 194 195 196 197 198 199 200 201 202 203 204 205 206 207 208 209 210 211 212 213 214 215 216 217 218 219 220 221 222 223 224 225 226 227 228 229 230 231 232 233 234 235 236 237 238 239 240 241 242 243 244 245 246 247 248 249 250 257 276 278 279 280 281 309 339 340 341 342 348 349 350 351 352 365 366 367 370 371 382 383 399 400 402 0
2 3 4 5 6 7 8 9 12 26 27 28 29 30 31 32 33 34 35 36 37 38 39 49 52 53 54 55 56 60 61 101 119 120 129 130 131 132 133 134 139 140 141 142 143 144 145 146 147 148 149 150 151 152 153 154 155 156 157 158 159 160 161 162 163 171 172 173 174 179 193 194 195 196 197 198 199 200 201 202 203 204 205 206 207 208 209 210 211 212 213 214 215 216 217 218 219 220 221 222 223 224 225 226 227 228 229 230 231 232 233 234 235 236 237 238 239 240 241 242 243 244 245 246 247 248 249 250 257 276 278 279 280 281 309 339 340 341 342 348 349 350 351 352 365 366 367 370 371 382 383 399 400 402 0
2 3 4 5 6 7 8 9 12 26 27 28 29 30 31 32 33 34 35 36 37 38 39 49 52 53 54 55 56 60 61 101 119 120 129 130 131 132 133 134 139 140 141 142 143 144 145 146 147 148 149 150 151 152 153 154 155 156 157 158 159 160 161 162 163 171 172 173 174 179 193 194 195 196 197 198 199 200 201 202 203 204 205 206 207 208 209 210 211 212 213 214 215 216 217 218 219 220 221 222 223 224 225 226 227 228 229 230 231 232 233 234 235 236 237 238 239 240 241 242 243 244 245 246 247 248 249 250 257 276 278 279 280 281 309 339 340 341 342 348 349 350 351 352 365 366 367 370 371 382 383 399 400 402 0
2 3 4 5 6 7 8 9 12 26 27 28 29 30 31 32 33 34 35 36 37 38 39 49 52 53 54 55 56 60 61 101 119 120 129 130 131 132 133 134 139 140 141 142 143 144 145 146 147 148 149 150 151 152 153 154 155 156 157 158 159 160 161 162 163 171 172 173 174 179 193 194 195 196 197 198 199 200 201 202 203 204 205 206 207 208 209 210 211 212 213 214 215 216 217 218 219 220 221 222 223 224 225 226 227 228 229 230 231 232 233 234 235 236 237 238 239 240 241 242 243 244 245 246 247 248 249 250 257 259 276 278 279 280 281 309 339 340 341 342 348 349 350 351 352 365 366 367 370 371 382 383 399 400 402 0
2 3 4 5 6 7 8 9 12 26 27 28 29 30 31 32 33 34 35 36 37 38 39 49 52 53 54 55 56 60 61 101 119 120 129 130 131 132 133 134 139 140 141 142 143 144 145 146 147 148 149 150 151 152 153 154 155 156 157 158 159 160 161 162 163 171 172 173 174 179 193 194 195 196 197 198 199 200 201 202 203 204 205 206 207 208 209 210 211 212 213 214 215 216 217 218 219 220 221 222 223 224 225 226 227 228 229 230 231 232 233 234 235 236 237 238 239 240 241 242 243 244 245 246 247 248 249 250 257 276 278 279 280 281 309 339 340 341 342 348 349 350 351 352 365 366 367 370 371 382 383 399 400 402 0
2 3 4 5 6 7 8 9 12 26 27 28 29 30 31 32 33 34 35 36 37 38 39 49 52 53 54 55 56 60 61 101 119 120 129 130 131 132 133 134 139 140 141 142 143 144 145 146 147 148 149 150 151 152 153 154 155 156 157 158 159 160 161 162 163 171 172 173 174 179 193 194 195 196 197 198 199 200 201 202 203 204 205 206 207 208 209 210 211 212 213 214 215 216 217 218 219 220 221 222 223 224 225 226 227 228 229 230 231 232 233 234 235 236 237 238 239 240 241 242 243 244 245 246 247 248 249 250 257 259 276 278 279 280 281 309 339 340 341 342 348 349 350 351 352 365 366 367 370 371 382 383 399 400 402 0
2 3 4 5 6 7 8 9 12 26 27 28 29 30 31 32 33 34 35 36 37 38 39 49 52 53 54 55 56 60 61 101 119 120 129 130 131 132 133 134 139 140 141 142 143 144 145 146 147 148 149 150 151 152 153 154 155 156 157 158 159 160 161 162 163 171 172 173 174 179 193 194 195 196 197 198 199 200 201 202 203 204 205 206 207 208 209 210 211 212 213 214 215 216 217 218 219 220 221 222 223 224 225 226 227 228 229 230 231 232 233 234 235 236 237 238 239 240 241 242 243 244 245 246 247 248 249 250 257 259 276 278 279 280 281 309 339 340 341 342 348 349 350 351 352 365 366 367 370 371 382 383 399 400 402 0
2 3 4 5 6 7 8 9 12 26 27 28 29 30 31 32 33 34 35 36 37 38 39 49 52 53 54 55 56 60 61 101 119 120 129 130 131 132 133 134 139 140 141 142 143 144 145 146 147 148 149 150 151 152 153 154 155 156 157 158 159 160 161 162 163 171 172 173 174 179 193 194 195 196 197 198 199 200 201 202 203 204 205 206 207 208 209 210 211 212 213 214 215 216 217 218 219 220 221 222 223 224 225 226 227 228 229 230 231 232 233 234 235 236 237 238 239 240 241 242 243 244 245 246 247 248 249 250 257 276 278 279 280 281 309 339 340 341 342 348 349 350 351 352 365 366 367 370 371 382 383 399 400 402 0
2 3 4 5 6 7 8 9 12 26 27 28 29 30 31 32 33 34 35 36 37 38 39 49 52 53 54 55 56 60 61 101 119 120 129 130 131 132 133 134 139 140 141 142 143 144 145 146 147 148 149 150 151 152 153 154 155 156 157 158 159 160 161 162 163 171 172 173 174 179 193 194 195 196 197 198 199 200 201 202 203 204 205 206 207 208 209 210 211 212 213 214 215 216 217 218 219 220 221 222 223 224 225 226 227 228 229 230 231 232 233 234 235 236 237 238 239 240 241 242 243 244 245 246 247 248 249 250 257 276 278 279 280 281 309 339 340 341 342 348 349 350 351 352 365 366 367 370 371 382 383 399 400 402 0
2 3 4 5 6 7 8 9 12 26 27 28 29 30 31 32 33 34 35 36 37 38 39 49 52 53 54 55 56 60 61 101 119 120 129 130 131 132 133 134 139 140 141 142 143 144 145 146 147 148 149 150 151 152 153 154 155 156 157 158 159 160 161 162 163 171 172 173 174 179 193 194 195 196 197 198 199 200 201 202 203 204 205 206 207 208 209 210 211 212 213 214 215 216 217 218 219 220 221 222 223 224 225 226 227 228 229 230 231 232 233 234 235 236 237 238 239 240 241 242 243 244 245 246 247 248 249 250 257 276 278 279 280 281 309 339 340 341 342 348 349 350 351 352 365 366 367 370 371 382 383 399 400 402 0
2 3 4 5 6 7 8 9 12 26 27 28 29 30 31 32 33 34 35 36 37 38 39 49 52 53 54 55 56 60 61 101 119 120 129 130 131 132 133 134 139 140 141 142 143 144 145 146 147 148 149 150 151 152 153 154 155 156 157 158 159 160 161 162 163 171 172 173 174 179 193 194 195 196 197 198 199 200 201 202 203 204 205 206 207 208 209 210 211 212 213 214 215 216 217 218 219 220 221 222 223 224 225 226 227 228 229 230 231 232 233 234 235 236 237 238 239 240 241 242 243 244 245 246 247 248 249 250 257 276 278 279 280 281 309 339 340 341 342 348 349 350 351 352 365 366 367 370 371 382 383 399 400 402 0
2 3 4 5 6 7 8 9 12 26 27 28 29 30 31 32 33 34 35 36 37 38 39 49 52 53 54 55 56 60 61 101 119 120 129 130 131 132 133 134 139 140 141 142 143 144 145 146 147 148 149 150 151 152 153 154 155 156 157 158 159 160 161 162 163 171 172 173 174 179 193 194 195 196 197 198 199 200 201 202 203 204 205 206 207 208 209 210 211 212 213 214 215 216 217 218 219 220 221 222 223 224 225 226 227 228 229 230 231 232 233 234 235 236 237 238 239 240 241 242 243 244 245 246 247 248 249 250 257 276 278 279 280 281 309 339 340 341 342 348 349 350 351 352 365 366 367 370 371 382 383 399 400 402 0
2 3 4 5 6 7 8 9 12 26 27 28 29 30 31 32 33 34 35 36 37 38 39 49 52 53 54 55 56 60 61 101 119 120 129 130 131 132 133 134 139 140 141 142 143 144 145 146 147 148 149 150 151 152 153 154 155 156 157 158 159 160 161 162 163 171 172 173 174 179 193 194 195 196 197 198 199 200 201 202 203 204 205 206 207 208 209 210 211 212 213 214 215 216 217 218 219 220 221 222 223 224 225 226 227 228 229 230 231 232 233 234 235 236 237 238 239 240 241 242 243 244 245 246 247 248 249 250 257 276 278 279 280 281 309 339 340 341 342 348 349 350 351 352 365 366 367 370 371 382 383 399 400 402 0
2 3 4 5 6 7 8 9 12 26 27 28 29 30 31 32 33 34 35 36 37 38 39 49 52 53 54 55 56 60 61 101 119 120 129 130 131 132 133 134 139 140 141 142 143 144 145 146 147 148 149 150 151 152 153 154 155 156 157 158 159 160 161 162 163 171 172 173 174 179 193 194 195 196 197 198 199 200 201 202 203 204 205 206 207 208 209 210 211 212 213 214 215 216 217 218 219 220 221 222 223 224 225 226 227 228 229 230 231 232 233 234 235 236 237 238 239 240 241 242 243 244 245 246 247 248 249 250 257 276 278 279 280 281 309 339 340 341 342 348 349 350 351 352 365 366 367 370 371 382 383 399 400 402 0
2 3 4 5 6 7 8 9 12 26 27 28 29 30 31 32 33 34 35 36 37 38 39 49 52 53 54 55 56 60 61 101 119 120 129 130 131 132 133 134 139 140 141 142 143 144 145 146 147 148 149 150 151 152 153 154 155 156 157 158 159 160 161 162 163 171 172 173 174 179 193 194 195 196 197 198 199 200 201 202 203 204 205 206 207 208 209 210 211 212 213 214 215 216 217 218 219 220 221 222 223 224 225 226 227 228 229 230 231 232 233 234 235 236 237 238 239 240 241 242 243 244 245 246 247 248 249 250 257 276 278 279 280 281 309 339 340 341 342 348 349 350 351 352 365 366 367 370 371 382 383 399 400 402 0
2 3 4 5 6 7 8 9 12 26 27 28 29 30 31 32 33 34 35 36 37 38 39 49 52 53 54 55 56 60 61 101 119 120 129 130 131 132 133 134 139 140 141 142 143 144 145 146 147 148 149 150 151 152 153 154 155 156 157 158 159 160 161 162 163 171 172 173 174 179 193 194 195 196 197 198 199 200 201 202 203 204 205 206 207 208 209 210 211 212 213 214 215 216 217 218 219 220 221 222 223 224 225 226 227 228 229 230 231 232 233 234 235 236 237 238 239 240 241 242 243 244 245 246 247 248 249 250 257 276 278 279 280 281 309 339 340 341 342 348 349 350 351 352 365 366 367 370 371 382 383 399 400 402 0
2 3 4 5 6 7 8 9 12 26 27 28 29 30 31 32 33 34 35 36 37 38 39 49 52 53 54 55 56 60 61 101 119 120 129 130 131 132 133 134 139 140 141 142 143 144 145 146 147 148 149 150 151 152 153 154 155 156 157 158 159 160 161 162 163 171 172 173 174 179 193 194 195 196 197 198 199 200 201 202 203 204 205 206 207 208 209 210 211 212 213 214 215 216 217 218 219 220 221 222 223 224 225 226 227 228 229 230 231 232 233 234 235 236 237 238 239 240 241 242 243 244 245 246 247 248 249 250 257 276 278 279 280 281 309 339 340 341 342 348 349 350 351 352 365 366 367 370 371 382 383 399 400 402 0
2 3 4 5 6 7 8 9 12 26 27 28 29 30 31 32 33 34 35 36 37 38 39 49 52 53 54 55 56 60 61 101 119 120 129 130 131 132 133 134 139 140 141 142 143 144 145 146 147 148 149 150 151 152 153 154 155 156 157 158 159 160 161 162 163 171 172 173 174 179 193 194 195 196 197 198 199 200 201 202 203 204 205 206 207 208 209 210 211 212 213 214 215 216 217 218 219 220 221 222 223 224 225 226 227 228 229 230 231 232 233 234 235 236 237 238 239 240 241 242 243 244 245 246 247 248 249 250 257 276 278 279 280 281 309 339 340 341 342 348 349 350 351 352 365 366 367 370 371 382 383 399 400 402 0
2 3 4 5 6 7 8 9 12 26 27 28 29 30 31 32 33 34 35 36 37 38 39 49 52 53 54 55 56 60 61 101 119 120 129 130 131 132 133 134 139 140 141 142 143 144 145 146 147 148 149 150 151 152 153 154 155 156 157 158 159 160 161 162 163 171 172 173 174 179 193 194 195 196 197 198 199 200 201 202 203 204 205 206 207 208 209 210 211 212 213 214 215 216 217 218 219 220 221 222 223 224 225 226 227 228 229 230 231 232 233 234 235 236 237 238 239 240 241 242 243 244 245 246 247 248 249 250 257 276 278 279 280 281 309 339 340 341 342 348 349 350 351 352 365 366 367 370 371 382 383 399 400 402 0
2 3 4 5 6 7 8 9 12 26 27 28 29 30 31 32 33 34 35 36 37 38 39 49 52 53 54 55 56 60 61 101 119 120 129 130 131 132 133 134 139 140 141 142 143 144 145 146 147 148 149 150 151 152 153 154 155 156 157 158 159 160 161 162 163 171 172 173 174 179 193 194 195 196 197 198 199 200 201 202 203 204 205 206 207 208 209 210 211 212 213 214 215 216 217 218 219 220 221 222 223 224 225 226 227 228 229 230 231 232 233 234 235 236 237 238 239 240 241 242 243 244 245 246 247 248 249 250 257 259 276 278 279 280 281 309 339 340 341 342 348 349 350 351 352 365 366 367 370 371 382 383 399 400 402 0
2 3 4 5 6 7 8 9 12 26 27 28 29 30 31 32 33 34 35 36 37 38 39 49 52 53 54 55 56 60 61 101 119 120 129 130 131 132 133 134 139 140 141 142 143 144 145 146 147 148 149 150 151 152 153 154 155 156 157 158 159 160 161 162 163 171 172 173 174 179 193 194 195 196 197 198 199 200 201 202 203 204 205 206 207 208 209 210 211 212 213 214 215 216 217 218 219 220 221 222 223 224 225 226 227 228 229 230 231 232 233 234 235 236 237 238 239 240 241 242 243 244 245 246 247 248 249 250 257 259 276 278 279 280 281 309 339 340 341 342 348 349 350 351 352 365 366 367 370 371 382 383 399 400 402 0
2 3 4 5 6 7 8 9 12 26 27 28 29 30 31 32 33 34 35 36 37 38 39 49 52 53 54 55 56 60 61 101 119 120 129 130 131 132 133 134 139 140 141 142 143 144 145 146 147 148 149 150 151 152 153 154 155 156 157 158 159 160 161 162 163 171 172 173 174 179 193 194 195 196 197 198 199 200 201 202 203 204 205 206 207 208 209 210 211 212 213 214 215 216 217 218 219 220 221 222 223 224 225 226 227 228 229 230 231 232 233 234 235 236 237 238 239 240 241 242 243 244 245 246 247 248 249 250 257 276 278 279 280 281 309 339 340 341 342 348 349 350 351 352 365 366 367 370 371 382 383 399 400 402 0
2 3 4 5 6 7 8 9 12 26 27 28 29 30 31 32 33 34 35 36 37 38 39 49 52 53 54 55 56 60 61 101 119 120 129 130 131 132 133 134 139 140 141 142 143 144 145 146 147 148 149 150 151 152 153 154 155 156 157 158 159 160 161 162 163 171 172 173 174 179 193 194 195 196 197 198 199 200 201 202 203 204 205 206 207 208 209 210 211 212 213 214 215 216 217 218 219 220 221 222 223 224 225 226 227 228 229 230 231 232 233 234 235 236 237 238 239 240 241 242 243 244 245 246 247 248 249 250 257 276 278 279 280 281 309 339 340 341 342 348 349 350 351 352 365 366 367 370 371 382 383 399 400 402 0
2 3 4 5 6 7 8 9 12 26 27 28 29 30 31 32 33 34 35 36 37 38 39 49 52 53 54 55 56 60 61 101 119 120 129 130 131 132 133 134 139 140 141 142 143 144 145 146 147 148 149 150 151 152 153 154 155 156 157 158 159 160 161 162 163 171 172 173 174 179 193 194 195 196 197 198 199 200 201 202 203 204 205 206 207 208 209 210 211 212 213 214 215 216 217 218 219 220 221 222 223 224 225 226 227 228 229 230 231 232 233 234 235 236 237 238 239 240 241 242 243 244 245 246 247 248 249 250 257 276 278 279 280 281 309 339 340 341 342 348 349 350 351 352 365 366 367 370 371 382 383 399 400 402 0
2 3 4 5 6 7 8 9 12 26 27 28 29 30 31 32 33 34 35 36 37 38 39 49 52 53 54 55 56 60 61 101 119 120 129 130 131 132 133 134 139 140 141 142 143 144 145 146 147 148 149 150 151 152 153 154 155 156 157 158 159 160 161 162 163 171 172 173 174 179 193 194 195 196 197 198 199 200 201 202 203 204 205 206 207 208 209 210 211 212 213 214 215 216 217 218 219 220 221 222 223 224 225 226 227 228 229 230 231 232 233 234 235 236 237 238 239 240 241 242 243 244 245 246 247 248 249 250 257 276 278 279 280 281 309 339 340 341 342 348 349 350 351 352 365 366 367 370 371 382 383 399 400 402 0
17 103 167 168 169 170 251 252 253 254 255 256 260 288 289 290 291 292 295 306 307 308 368 388 392 0
17 103 167 168 169 170 251 252 253 254 255 256 259 260 288 289 290 291 292 295 306 307 308 368 388 392 0
17 103 167 168 169 170 251 252 253 254 255 256 288 289 290 291 292 295 306 307 308 368 388 392 0
17 103 167 168 169 170 251 252 253 254 255 256 260 288 289 290 291 292 295 306 307 308 368 388 392 0
17 103 167 168 169 170 251 252 253 254 255 256 260 288 289 290 291 292 295 306 307 308 368 388 392 0
17 103 167 168 169 170 251 252 253 254 255 256 260 288 289 290 291 292 295 306 307 308 368 388 392 0
2 3 4 5 6 7 8 9 12 26 27 28 29 30 31 32 33 34 35 36 37 38 39 49 52 53 54 55 56 60 61 101 119 120 129 130 131 132 133 134 139 140 141 142 143 144 145 146 147 148 149 150 151 152 153 154 155 156 157 158 159 160 161 162 163 171 172 173 174 179 193 194 195 196 197 198 199 200 201 202 203 204 205 206 207 208 209 210 211 212 213 214 215 216 217 218 219 220 221 222 223 224 225 226 227 228 229 230 231 232 233 234 235 236 237 238 239 240 241 242 243 244 245 246 247 248 249 250 257 276 278 279 280 281 309 339 340 341 342 348 349 350 351 352 365 366 367 370 371 382 383 399 400 402 0
18 19 23 24 25 45 78 102 112 113 114 115 116 117 123 124 137 138 258 261 262 263 264 265 266 267 268 269 270 271 272 273 274 275 297 298 302 312 313 318 319 320 321 322 323 324 325 326 327 328 330 331 332 333 338 347 354 357 358 359 360 361 364 369 378 379 380 381 394 395 397 398 404 406 407 408 409 410 411 412 413 414 415 0
7 8 52 53 54 55 60 101 149 155 156 157 158 167 168 169 170 197 198 199 200 201 203 205 208 209 213 229 231 232 245 246 252 259 260 278 279 280 281 290 291 292 306 309 337 365 0
8 53 60 156 158 167 168 169 170 197 251 252 254 255 256 259 260 280 288 289 290 291 292 306 309 337 365 388 0
18 19 20 21 23 24 25 45 57 78 80 112 113 114 115 116 117 118 123 124 137 138 258 261 262 263 264 265 266 267 268 269 270 271 272 273 274 275 282 283 284 297 298 302 313 314 315 316 317 318 319 320 321 322 323 324 325 326 327 328 329 331 332 333 338 347 354 357 358 359 360 361 363 364 369 374 378 379 380 381 389 390 391 394 395 398 404 405 406 407 408 409 410 411 412 413 414 415 0
18 19 20 21 23 24 25 45 57 78 80 112 113 114 115 116 117 118 123 124 137 138 258 261 262 263 264 265 266 267 268 269 270 271 272 273 274 282 283 284 297 298 302 313 314 315 316 317 318 319 320 321 322 323 324 325 326 327 328 329 331 332 333 338 347 354 357 358 359 360 361 363 364 369 374 378 379 380 381 389 390 391 394 395 398 404 405 406 407 408 409 410 411 412 413 414 415 0
18 19 20 21 23 24 25 45 57 78 80 112 113 114 115 116 117 118 123 124 137 138 258 261 262 263 264 265 266 267 268 269 270 271 272 273 274 282 283 284 297 298 313 314 315 316 317 318 319 320 321 322 323 324 325 326 327 328 329 331 332 333 338 347 354 357 360 361 363 364 369 374 378 379 380 381 389 390 391 394 395 398 404 405 406 407 408 409 410 411 412 413 414 415 0
18 19 20 21 23 24 25 45 57 78 80 112 113 114 115 116 117 118 123 124 137 138 164 165 166 258 261 262 263 264 265 266 267 268 269 270 271 272 273 274 282 283 284 297 298 313 314 315 316 317 318 319 320 321 322 323 324 325 326 327 328 329 331 332 333 338 347 354 357 360 361 363 364 369 374 375 378 379 380 381 389 390 391 394 395 398 404 405 406 407 408 409 410 411 412 413 414 415 0
18 19 20 21 23 24 25 45 57 78 80 112 113 114 115 116 117 118 123 124 137 138 164 165 166 258 261 262 263 264 265 266 267 268 269 270 271 272 273 274 282 283 284 297 298 313 314 315 316 317 318 319 320 321 322 323 324 325 326 327 328 329 331 332 333 338 347 354 357 360 361 363 364 369 374 375 378 379 380 381 389 390 391 394 395 398 404 405 406 407 408 409 410 411 412 413 414 415 0
18 19 20 21 23 24 25 45 57 78 80 102 112 113 114 115 116 117 118 123 124 137 138 258 261 262 263 264 265 266 267 268 269 270 271 272 273 274 275 282 283 284 297 298 302 312 313 314 315 316 317 318 319 320 321 322 323 324 325 326 327 328 329 330 331 332 333 338 347 354 357 358 359 360 361 363 364 369 374 378 379 380 381 389 390 391 394 395 397 398 404 405 406 407 408 409 410 411 412 413 414 415 0
18 19 20 21 23 24 25 45 57 78 80 112 113 114 115 116 117 118 123 124 137 138 258 261 262 263 264 265 266 267 268 269 270 271 272 273 274 275 282 283 284 297 298 302 313 314 315 316 317 318 319 320 321 322 323 324 325 326 327 328 329 331 332 333 338 347 354 357 358 359 360 361 363 364 369 374 378 379 380 381 389 390 391 394 395 398 404 405 406 407 408 409 410 411 412 413 414 415 0
18 19 20 21 23 24 25 45 57 78 80 112 113 114 115 116 117 118 123 124 137 138 258 261 262 263 264 265 266 267 268 269 270 271 272 273 274 275 282 283 284 297 298 302 313 314 315 316 317 318 319 320 321 322 323 324 325 326 327 328 329 331 332 333 338 347 354 357 358 359 360 361 363 364 369 374 378 379 380 381 389 390 391 394 395 398 404 405 406 407 408 409 410 411 412 413 414 415 0
18 19 20 21 23 24 25 45 57 78 80 112 113 114 115 116 117 118 123 124 137 138 258 261 262 263 264 265 266 267 268 269 270 271 272 273 274 275 282 283 284 297 298 302 312 313 314 315 316 317 318 319 320 321 322 323 324 325 326 327 328 329 331 332 333 338 347 354 357 358 359 360 361 363 364 369 374 378 379 380 381 389 390 391 394 395 397 398 404 405 406 407 408 409 410 411 412 413 414 415 0
18 19 20 21 23 24 25 45 57 78 80 112 113 114 115 116 117 118 123 124 137 138 258 261 262 263 264 265 266 267 268 269 270 271 272 273 274 275 282 283 284 297 298 302 313 314 315 316 317 318 319 320 321 322 323 324 325 326 327 328 329 331 332 333 338 347 354 357 358 359 360 361 363 364 369 374 378 379 380 381 389 390 391 394 395 398 404 405 406 407 408 409 410 411 412 413 414 415 0
18 19 20 21 23 24 25 45 57 78 80 102 112 113 114 115 116 117 118 123 124 137 138 258 261 262 263 264 265 266 267 268 269 270 271 272 273 274 275 282 283 284 297 298 302 312 313 314 315 316 317 318 319 320 321 322 323 324 325 326 327 328 329 330 331 332 333 338 347 354 357 358 359 360 361 363 364 369 374 378 379 380 381 389 390 391 394 395 397 398 404 405 406 407 408 409 410 411 412 413 414 415 0
18 19 20 21 23 24 25 45 57 78 80 112 113 114 115 116 117 118 123 124 137 138 258 261 262 263 264 265 266 267 268 269 270 271 272 273 274 282 283 284 297 298 302 313 314 315 316 317 318 319 320 321 322 323 324 325 326 327 328 329 331 332 333 338 347 354 357 358 359 360 361 363 364 369 374 378 379 380 381 389 390 391 394 395 398 404 405 406 407 408 409 410 411 412 413 414 415 0
18 19 20 21 23 24 25 45 57 78 80 112 113 114 115 116 117 118 123 124 137 138 258 261 262 263 264 265 266 267 268 269 270 271 272 273 274 282 283 284 297 298 302 313 314 315 316 317 318 319 320 321 322 323 324 325 326 327 328 329 331 332 333 338 347 354 357 358 359 360 361 363 364 369 374 378 379 380 381 389 390 391 394 395 398 404 405 406 407 408 409 410 411 412 413 414 415 0
18 19 20 21 23 24 25 45 57 78 80 102 112 113 114 115 116 117 118 123 124 137 138 258 261 262 263 264 265 266 267 268 269 270 271 272 273 274 275 282 283 284 297 298 302 312 313 314 315 316 317 318 319 320 321 322 323 324 325 326 327 328 329 330 331 332 333 338 347 354 357 358 359 360 361 363 364 369 374 378 379 380 381 389 390 391 394 395 397 398 404 405 406 407 408 409 410 411 412 413 414 415 0
14 15 18 19 23 25 57 102 113 115 116 117 118 122 123 137 138 181 258 261 266 267 268 269 270 271 274 275 297 298 302 312 313 314 315 316 317 318 327 329 330 332 333 345 347 357 358 359 361 363 369 374 378 379 397 404 405 408 411 412 0
2 3 4 5 6 7 8 9 12 26 27 28 29 30 31 32 33 34 35 36 37 38 39 49 52 53 54 55 56 60 61 101 119 120 129 130 131 132 133 134 139 140 141 142 143 144 145 146 147 148 149 150 151 152 153 154 155 156 157 158 159 160 161 162 163 171 172 173 174 179 193 194 195 196 197 198 199 200 201 202 203 204 205 206 207 208 209 210 211 212 213 214 215 216 217 218 219 220 221 222 223 224 225 226 227 228 229 230 231 232 233 234 235 236 237 238 239 240 241 242 243 244 245 246 247 248 249 250 257 276 278 279 280 281 309 339 340 341 342 348 349 350 351 352 365 366 367 370 371 382 383 399 400 402 0
42 43 74 75 77 88 89 90 108 122 125 180 181 182 188 189 190 191 192 277 296 299 300 334 335 336 345 353 355 386 387 403 416 0
2 3 4 5 6 7 8 9 12 26 27 28 29 30 31 32 33 34 35 36 37 38 39 49 52 53 54 55 56 60 61 101 119 120 129 130 131 132 133 134 139 140 141 142 143 144 145 146 147 148 149 150 151 152 153 154 155 156 157 158 159 160 161 162 163 171 172 173 174 179 193 194 195 196 197 198 199 200 201 202 203 204 205 206 207 208 209 210 211 212 213 214 215 216 217 218 219 220 221 222 223 224 225 226 227 228 229 230 231 232 233 234 235 236 237 238 239 240 241 242 243 244 245 246 247 248 249 250 257 259 276 278 279 280 281 309 339 340 341 342 348 349 350 351 352 365 366 367 370 371 382 383 399 400 402 0
2 3 4 5 6 7 8 9 12 26 27 28 29 30 31 32 33 34 35 36 37 38 39 49 52 53 54 55 56 60 61 101 120 129 130 131 132 133 134 139 140 141 142 143 144 145 146 147 148 149 150 151 152 153 154 155 156 157 158 159 160 161 162 163 172 173 174 179 193 194 195 196 197 198 199 200 201 202 203 204 205 206 207 208 209 210 211 212 213 214 215 216 217 218 219 220 221 222 223 224 225 226 227 228 229 230 231 232 233 234 235 236 237 238 239 240 241 242 243 244 245 246 247 248 249 250 257 259 276 278 279 280 281 309 339 340 341 342 348 349 350 351 352 365 366 367 370 371 382 383 399 400 402 0
2 3 4 5 6 7 8 9 12 26 27 28 29 30 31 32 33 34 35 36 37 38 39 49 52 53 54 55 56 60 61 101 120 129 130 131 132 133 134 139 140 141 142 143 144 145 146 147 148 149 150 151 152 153 154 155 156 157 158 159 160 161 162 163 171 172 173 174 179 193 194 195 196 197 198 199 200 201 202 203 204 205 206 207 208 209 210 211 212 213 214 215 216 217 218 219 220 221 222 223 224 225 226 227 228 229 230 231 232 233 234 235 236 237 238 239 240 241 242 243 244 245 246 247 248 249 250 257 259 260 276 278 279 280 281 309 337 339 340 341 342 348 349 350 351 352 365 366 367 370 371 382 383 399 400 402 0
2 3 4 5 6 7 8 9 12 26 27 28 29 30 31 32 33 34 35 36 37 38 39 49 52 53 54 55 56 60 61 101 119 120 129 130 131 132 133 134 139 140 141 142 143 144 145 146 147 148 149 150 151 152 153 154 155 156 157 158 159 160 161 162 163 171 172 173 174 179 193 194 195 196 197 198 199 200 201 202 203 204 205 206 207 208 209 210 211 212 213 214 215 216 217 218 219 220 221 222 223 224 225 226 227 228 229 230 231 232 233 234 235 236 237 238 239 240 241 242 243 244 245 246 247 248 249 250 257 259 276 278 279 280 281 309 339 340 341 342 348 349 350 351 352 365 366 367 370 371 382 383 399 400 402 0
18 19 20 21 24 25 45 46 57 78 79 80 112 113 114 115 116 117 118 123 124 164 165 166 261 262 263 264 265 266 267 268 269 270 271 272 273 274 282 283 284 285 297 298 311 314 316 317 318 319 320 321 322 323 324 325 326 327 328 329 331 332 338 347 354 357 360 361 363 364 369 374 375 378 379 380 381 389 390 391 394 395 398 401 405 406 407 408 409 410 411 412 413 414 415 0
18 19 20 21 24 25 45 46 57 78 79 80 112 113 114 115 116 117 118 123 124 164 165 166 261 262 263 264 265 266 267 268 269 270 271 272 273 274 282 283 284 285 297 298 311 316 317 318 319 320 321 322 323 324 325 326 327 328 329 331 332 338 347 354 357 360 361 363 364 369 374 375 378 379 380 381 389 390 391 394 395 398 401 405 406 407 408 409 410 411 412 413 414 415 0
18 19 20 21 24 25 45 46 57 78 79 80 112 113 114 115 116 117 118 123 124 164 165 166 261 262 263 264 265 266 267 268 269 270 271 272 273 274 282 283 284 285 297 298 311 316 317 318 319 320 321 322 323 324 325 326 327 328 329 331 332 338 347 354 357 360 361 363 364 369 374 375 378 379 380 381 389 390 391 394 395 398 401 405 406 407 408 409 410 411 412 413 414 415 0
1 20 21 46 50 58 59 79 80 121 164 165 166 282 283 284 285 286 301 311 375 376 377 389 390 391 401 0
1 50 58 59 79 100 121 285 286 301 311 376 377 401 0
10 11 13 64 65 66 67 68 69 70 71 72 73 105 106 107 136 175 176 177 178 287 303 304 305 343 344 346 362 372 373 385 396 0
17 103 167 168 169 170 251 252 253 254 255 256 260 288 289 290 291 292 295 306 307 308 368 388 392 0
17 167 168 169 170 251 252 253 254 255 256 260 288 289 290 291 292 295 306 307 308 368 388 392 0
17 103 167 168 169 170 251 252 253 254 255 256 259 260 288 289 290 291 292 295 306 307 308 368 388 392 0
17 167 168 169 170 251 252 253 254 255 256 259 260 288 289 290 291 292 295 306 307 308 337 368 388 392 0
17 167 168 169 170 251 252 253 254 255 256 259 260 288 289 290 291 292 295 306 307 308 337 368 388 392 0
22 40 293 294 0
22 40 293 294 0
17 167 168 169 170 251 252 253 254 255 256 288 289 290 291 292 295 306 307 308 368 388 392 0
42 43 74 75 77 102 108 122 125 180 181 182 188 189 190 191 192 277 296 299 300 334 335 336 345 353 355 386 387 403 416 0
18 19 20 21 23 24 25 45 57 78 80 112 113 114 115 116 117 118 123 124 137 138 258 261 262 263 264 265 266 267 268 269 270 271 272 273 274 275 282 283 284 297 298 302 313 314 315 316 317 318 319 320 321 322 323 324 325 326 327 328 329 331 332 333 338 347 354 357 358 359 360 361 363 364 369 374 378 379 380 381 389 390 391 394 395 398 404 405 406 407 408 409 410 411 412 413 414 415 0
18 19 20 21 23 24 25 45 57 78 80 112 113 114 115 116 117 118 123 124 137 138 258 261 262 263 264 265 266 267 268 269 270 271 272 273 274 275 282 283 284 297 298 302 313 314 315 316 317 318 319 320 321 322 323 324 325 326 327 328 329 331 332 333 338 347 354 357 358 359 360 361 363 364 369 374 378 379 380 381 389 390 391 394 395 398 404 405 406 407 408 409 410 411 412 413 414 415 0
42 43 74 75 77 108 122 125 180 181 182 188 189 190 191 192 277 296 299 300 334 335 336 345 353 355 386 387 403 416 0
42 43 74 75 77 108 122 125 180 181 182 188 189 190 191 192 277 296 299 300 334 335 336 345 353 355 386 387 403 416 0
1 46 50 58 59 79 100 121 285 286 301 311 376 377 401 0
18 23 24 25 78 102 113 114 115 116 117 122 123 137 138 258 261 262 266 267 268 269 270 271 272 273 274 275 297 298 302 312 313 322 323 330 332 333 345 354 357 358 359 369 378 379 397 398 404 408 412 414 415 0
10 11 13 64 65 66 67 68 69 70 71 72 73 105 106 107 136 175 176 177 178 287 303 304 305 343 344 346 362 372 373 385 396 0
10 11 13 64 65 66 67 68 69 70 71 72 73 105 106 107 136 175 176 177 178 287 303 304 305 343 344 346 362 372 373 385 396 0
10 11 13 64 65 66 67 68 69 70 71 72 73 105 106 107 136 175 176 177 178 287 303 304 305 343 344 346 362 372 373 385 396 0
17 103 167 168 169 170 251 252 253 254 255 256 259 260 288 289 290 291 292 295 306 307 308 337 368 388 392 0
17 103 167 168 169 170 251 252 253 254 255 256 288 289 290 291 292 295 306 307 308 368 388 392 0
17 103 167 168 169 170 251 252 253 254 255 256 288 289 290 291 292 295 306 307 308 368 388 392 0
2 3 4 5 6 7 8 9 12 28 30 31 35 36 38 49 52 53 54 55 60 61 101 129 130 131 132 133 134 139 140 142 145 146 147 148 149 150 151 152 153 154 155 156 157 158 161 162 163 172 173 179 193 194 195 196 197 198 199 200 201 202 203 204 205 206 207 208 209 210 211 212 213 214 215 216 217 218 219 220 221 222 223 224 225 226 227 228 229 230 231 232 233 234 235 236 237 238 239 240 241 242 243 244 245 246 247 248 249 250 257 259 260 276 278 279 280 281 309 337 339 340 341 342 348 349 350 351 365 370 371 382 383 400 402 0
310 0
1 20 46 50 58 59 79 80 121 164 165 166 282 283 284 285 286 301 311 375 376 377 389 390 391 401 0
23 25 102 122 137 138 258 266 269 271 274 275 302 312 313 330 358 359 397 0
18 19 23 24 25 45 78 102 112 113 114 115 116 117 122 123 124 137 138 258 261 262 263 264 265 266 267 268 269 270 271 272 273 274 275 297 298 302 312 313 318 319 320 321 322 323 324 325 326 327 328 330 331 332 333 338 345 347 354 357 358 359 360 361 364 369 378 379 380 381 395 397 398 404 406 407 408 409 410 411 412 413 414 415 0
14 15 16 18 19 24 25 41 44 45 47 48 51 57 63 78 81 82 83 84 85 86 87 88 89 90 91 92 93 94 95 96 97 98 99 102 109 110 111 112 113 114 115 116 117 118 123 124 126 127 128 137 164 165 166 183 184 185 186 187 261 262 263 264 265 266 267 268 269 270 271 272 273 274 275 282 297 298 314 315 316 317 318 319 320 321 322 323 324 325 326 327 328 329 330 331 332 333 338 347 354 357 360 361 363 364 369 374 375 378 379 380 381 384 391 393 395 397 398 404 405 406 407 408 409 410 411 412 413 414 415 417 0
14 15 16 18 19 24 25 41 44 45 47 48 51 57 63 78 81 82 83 84 85 86 87 88 90 91 92 93 94 95 96 97 98 99 102 109 110 111 112 113 114 115 116 117 118 122 123 124 126 127 128 164 165 166 183 184 185 186 187 261 262 263 264 265 266 267 268 269 270 271 272 273 274 275 297 298 314 315 316 317 318 319 320 321 322 323 324 325 326 327 328 329 330 331 332 333 338 347 354 357 360 361 363 364 369 374 378 379 380 381 384 393 397 398 404 405 407 408 409 410 411 412 413 414 415 417 0
14 15 16 18 19 20 21 24 25 41 44 45 47 48 51 57 63 78 80 81 82 83 84 85 86 87 91 92 93 94 95 96 97 98 99 109 110 111 112 113 114 115 116 117 118 123 124 126 127 128 137 164 165 166 183 184 185 186 187 261 262 263 264 265 266 267 268 269 270 271 272 273 274 275 282 283 284 297 298 314 315 316 317 318 319 320 321 322 323 324 325 326 327 328 329 331 332 333 338 347 354 357 360 361 363 364 369 374 375 378 379 380 381 384 389 390 391 393 395 397 398 404 405 406 407 408 409 410 411 412 413 414 415 417 0
14 15 16 18 19 20 21 24 25 41 44 45 46 47 48 51 57 63 78 80 81 82 83 84 85 86 87 91 92 93 94 95 96 97 98 99 102 109 110 111 112 113 114 115 116 117 118 123 124 126 127 128 137 164 165 166 183 184 185 186 187 261 262 263 264 265 266 267 268 269 270 271 272 273 274 275 282 283 284 297 298 314 315 316 317 318 319 320 321 322 323 324 325 326 327 328 329 330 331 332 333 338 347 354 357 360 361 363 364 369 374 375 378 379 380 381 384 389 390 391 393 395 397 398 404 405 406 407 408 409 410 411 412 413 414 415 417 0
14 18 19 20 21 23 24 25 45 57 78 80 112 113 114 115 116 117 118 123 124 137 138 164 165 166 258 261 262 263 264 265 266 267 268 269 270 271 272 273 274 275 282 283 284 297 298 313 314 315 316 317 318 319 320 321 322 323 324 325 326 327 328 329 331 332 333 338 347 354 357 360 361 363 364 369 374 375 378 379 380 381 389 390 391 394 395 398 404 405 406 407 408 409 410 411 412 413 414 415 0
18 19 20 21 23 24 25 45 57 78 80 112 113 114 115 116 117 118 123 124 137 138 258 261 262 263 264 265 266 267 268 269 270 271 272 273 274 282 283 284 297 298 313 314 315 316 317 318 319 320 321 322 323 324 325 326 327 328 329 331 332 333 338 347 354 357 358 359 360 361 363 364 369 374 378 379 380 381 389 390 391 394 395 398 404 405 406 407 408 409 410 411 412 413 414 415 0
18 19 20 21 23 24 25 45 57 78 80 112 113 114 115 116 117 118 123 124 137 138 258 261 262 263 264 265 266 267 268 269 270 271 272 273 274 282 283 284 297 298 313 314 315 316 317 318 319 320 321 322 323 324 325 326 327 328 329 331 332 333 338 347 354 357 358 359 360 361 363 364 369 374 378 379 380 381 389 390 391 394 395 398 404 405 406 407 408 409 410 411 412 413 414 415 0
18 19 20 21 23 24 25 45 57 78 80 112 113 114 115 116 117 118 123 124 137 138 258 261 262 263 264 265 266 267 268 269 270 271 272 273 274 282 283 284 297 298 313 314 315 316 317 318 319 320 321 322 323 324 325 326 327 328 329 331 332 333 338 347 354 357 360 361 363 364 369 374 378 379 380 381 389 390 391 394 395 398 404 405 406 407 408 409 410 411 412 413 414 415 0
18 19 20 21 23 24 25 45 57 78 80 112 113 114 115 116 117 118 123 124 137 138 258 261 262 263 264 265 266 267 268 269 270 271 272 273 274 282 283 284 297 298 302 313 314 315 316 317 318 319 320 321 322 323 324 325 326 327 328 329 331 332 333 338 347 354 357 358 359 360 361 363 364 369 374 378 379 380 381 389 390 391 394 395 398 404 405 406 407 408 409 410 411 412 413 414 415 0
18 19 20 21 23 24 25 45 57 78 80 112 113 114 115 116 117 118 123 124 137 138 258 261 262 263 264 265 266 267 268 269 270 271 272 273 274 282 283 284 297 298 302 313 314 315 316 317 318 319 320 321 322 323 324 325 326 327 328 329 331 332 333 338 347 354 357 358 359 360 361 363 364 369 374 378 379 380 381 389 390 391 394 395 398 404 405 406 407 408 409 410 411 412 413 414 415 0
18 19 20 21 23 24 25 45 57 78 80 112 113 114 115 116 117 118 123 124 137 138 164 165 166 258 261 262 263 264 265 266 267 268 269 270 271 272 273 274 282 283 284 297 298 313 314 315 316 317 318 319 320 321 322 323 324 325 326 327 328 329 331 332 333 338 347 354 357 360 361 363 364 369 374 375 378 379 380 381 389 390 391 394 395 398 404 405 406 407 408 409 410 411 412 413 414 415 0
18 19 20 21 23 24 25 45 57 78 80 112 113 114 115 116 117 118 123 124 137 138 166 258 261 262 263 264 265 266 267 268 269 270 271 272 273 274 282 283 284 297 298 313 314 315 316 317 318 319 320 321 322 323 324 325 326 327 328 329 331 332 333 338 347 354 357 360 361 363 364 369 374 378 379 380 381 389 390 391 394 395 398 404 405 406 407 408 409 410 411 412 413 414 415 0
18 19 20 21 23 24 25 45 57 78 80 112 113 114 115 116 117 118 123 124 137 138 166 258 261 262 263 264 265 266 267 268 269 270 271 272 273 274 282 283 284 297 298 313 314 315 316 317 318 319 320 321 322 323 324 325 326 327 328 329 331 332 333 338 347 354 357 360 361 363 364 369 374 378 379 380 381 389 390 391 394 395 398 404 405 406 407 408 409 410 411 412 413 414 415 0
18 19 20 21 23 24 25 45 57 78 80 112 113 114 115 116 117 118 123 124 137 138 258 261 262 263 264 265 266 267 268 269 270 271 272 273 274 275 282 283 284 297 298 313 314 315 316 317 318 319 320 321 322 323 324 325 326 327 328 329 331 332 333 338 347 354 357 358 359 360 361 363 364 369 374 378 379 380 381 389 390 391 394 395 398 404 405 406 407 408 409 410 411 412 413 414 415 0
18 19 20 21 23 24 25 45 57 78 80 112 113 114 115 116 117 118 123 124 137 138 166 258 261 262 263 264 265 266 267 268 269 270 271 272 273 274 282 283 284 297 298 313 314 315 316 317 318 319 320 321 322 323 324 325 326 327 328 329 331 332 333 338 347 354 357 360 361 363 364 369 374 378 379 380 381 389 390 391 394 395 398 404 405 406 407 408 409 410 411 412 413 414 415 0
14 15 16 18 19 20 21 24 25 41 44 45 46 47 48 51 57 63 78 80 81 82 83 84 85 86 91 92 93 94 95 96 97 98 99 102 109 110 111 112 113 114 115 116 117 118 123 124 126 127 128 137 164 165 166 183 184 185 186 187 261 262 263 264 265 266 267 268 269 270 271 272 273 274 275 282 283 284 297 298 314 315 316 317 318 319 320 321 322 323 324 325 326 327 328 329 331 332 333 338 347 354 357 360 361 363 364 369 374 375 378 379 380 381 384 389 390 391 393 395 397 398 404 405 406 407 408 409 410 411 412 413 414 415 0
14 23 57 102 122 138 181 258 266 271 274 275 302 312 313 314 315 317 330 333 345 358 359 397 404 0
18 19 20 21 23 24 25 45 57 78 80 112 113 114 115 116 117 118 123 124 137 138 258 261 262 263 264 265 266 267 268 269 270 271 272 273 274 282 283 284 297 298 313 314 315 316 317 318 319 320 321 322 323 324 325 326 327 328 329 331 332 333 338 347 354 357 358 359 360 361 363 364 369 374 378 379 380 381 389 390 391 394 395 398 404 405 406 407 408 409 410 411 412 413 414 415 0
18 19 20 21 23 24 25 45 57 78 80 112 113 114 115 116 117 118 123 124 137 138 258 261 262 263 264 265 266 267 268 269 270 271 272 273 274 275 282 283 284 297 298 302 313 314 315 316 317 318 319 320 321 322 323 324 325 326 327 328 329 331 332 333 338 347 354 357 358 359 360 361 363 364 369 374 378 379 380 381 389 390 391 394 395 398 404 405 406 407 408 409 410 411 412 413 414 415 0
14 15 18 19 23 24 25 45 57 78 102 112 113 114 115 116 117 118 122 123 124 137 138 181 258 261 262 263 264 265 266 267 268 269 270 271 272 273 274 275 297 298 302 313 314 315 316 317 318 319 320 321 322 323 324 325 326 327 328 329 330 331 332 333 338 345 347 354 357 358 359 360 361 363 364 369 374 378 379 381 397 398 404 405 407 408 409 410 411 412 413 414 415 0
42 43 74 75 77 88 89 90 108 125 180 181 182 188 189 190 191 192 277 296 299 300 334 335 336 353 355 386 387 403 416 0
42 43 74 75 77 88 89 90 108 122 125 180 181 182 188 189 190 191 192 277 296 299 300 334 335 336 345 353 355 386 387 403 416 0
42 43 74 75 77 108 125 180 181 182 188 189 190 191 192 277 296 299 300 334 335 336 345 353 355 386 387 403 416 0
8 53 54 60 155 156 157 158 167 168 169 170 197 198 199 200 259 260 280 291 292 306 309 337 365 0
18 19 20 21 23 24 25 45 57 78 80 112 113 114 115 116 117 118 123 124 137 138 164 165 166 258 261 262 263 264 265 266 267 268 269 270 271 272 273 274 282 283 284 297 298 313 314 315 316 317 318 319 320 321 322 323 324 325 326 327 328 329 331 332 333 338 347 354 357 360 361 363 364 369 374 378 379 380 381 389 390 391 394 395 398 404 405 406 407 408 409 410 411 412 413 414 415 0
2 3 4 5 6 7 8 9 12 26 27 28 29 30 31 32 33 34 35 36 37 38 39 49 52 53 54 55 56 60 61 101 119 120 129 130 131 132 133 134 139 140 141 142 143 144 145 146 147 148 149 150 151 152 153 154 155 156 157 158 159 160 161 162 163 171 172 173 174 179 193 194 195 196 197 198 199 200 201 202 203 204 205 206 207 208 209 210 211 212 213 214 215 216 217 218 219 220 221 222 223 224 225 226 227 228 229 230 231 232 233 234 235 236 237 238 239 240 241 242 243 244 245 246 247 248 249 250 257 276 278 279 280 281 309 339 340 341 342 348 349 350 351 352 365 366 367 370 371 382 383 399 400 402 0
2 3 4 5 6 7 8 9 12 26 27 28 29 30 31 32 33 34 35 36 37 38 39 49 52 53 54 55 56 60 61 101 119 120 129 130 131 132 133 134 139 140 141 142 143 144 145 146 147 148 149 150 151 152 153 154 155 156 157 158 159 160 161 162 163 171 172 173 174 179 193 194 195 196 197 198 199 200 201 202 203 204 205 206 207 208 209 210 211 212 213 214 215 216 217 218 219 220 221 222 223 224 225 226 227 228 229 230 231 232 233 234 235 236 237 238 239 240 241 242 243 244 245 246 247 248 249 250 257 276 278 279 280 281 309 339 340 341 342 348 349 350 351 352 365 366 367 370 371 382 383 399 400 402 0
2 3 4 5 6 7 8 9 12 26 27 28 29 30 31 32 33 34 35 36 37 38 39 49 52 53 54 55 56 60 61 101 119 120 129 130 131 132 133 134 139 140 141 142 143 144 145 146 147 148 149 150 151 152 153 154 155 156 157 158 159 160 161 162 163 171 172 173 174 179 193 194 195 196 197 198 199 200 201 202 203 204 205 206 207 208 209 210 211 212 213 214 215 216 217 218 219 220 221 222 223 224 225 226 227 228 229 230 231 232 233 234 235 236 237 238 239 240 241 242 243 244 245 246 247 248 249 250 257 276 278 279 280 281 309 339 340 341 342 348 349 350 351 352 365 366 367 370 371 382 383 399 400 402 0
2 3 4 5 6 7 8 9 12 26 27 28 29 30 31 32 33 34 35 36 37 38 39 49 52 53 54 55 56 60 61 101 119 120 129 130 131 132 133 134 139 140 141 142 143 144 145 146 147 148 149 150 151 152 153 154 155 156 157 158 159 160 161 162 163 171 172 173 174 179 193 194 195 196 197 198 199 200 201 202 203 204 205 206 207 208 209 210 211 212 213 214 215 216 217 218 219 220 221 222 223 224 225 226 227 228 229 230 231 232 233 234 235 236 237 238 239 240 241 242 243 244 245 246 247 248 249 250 257 276 278 279 280 281 309 339 340 341 342 348 349 350 351 352 365 366 367 370 371 382 383 399 400 402 0
10 11 13 64 65 66 67 68 69 70 71 72 73 105 106 107 136 175 176 177 178 287 303 304 305 343 344 346 362 372 373 385 396 0
10 11 13 64 65 66 67 68 69 70 71 72 73 105 106 107 136 175 176 177 178 287 303 304 305 343 344 346 362 372 373 385 396 0
74 75 77 102 108 122 125 180 181 182 188 189 190 191 192 275 277 296 299 300 302 313 330 333 335 336 345 353 358 359 386 387 397 403 404 416 0
10 11 13 64 65 66 67 68 69 70 71 72 73 105 106 107 136 175 176 177 178 287 303 304 305 343 344 346 362 372 373 385 396 0
14 18 19 20 21 23 24 25 45 57 78 80 112 113 114 115 116 117 118 123 124 137 138 258 261 262 263 264 265 266 267 268 269 270 271 272 273 274 275 282 283 284 297 298 313 314 315 316 317 318 319 320 321 322 323 324 325 326 327 328 329 331 332 333 338 347 354 357 358 359 360 361 363 364 369 374 378 379 380 381 389 390 391 394 395 397 398 404 405 406 407 408 409 410 411 412 413 414 415 0
2 3 4 5 6 7 8 9 12 26 27 28 29 30 31 32 33 34 35 36 37 38 39 49 52 53 54 55 56 60 61 101 119 120 129 130 131 132 133 134 139 140 141 142 143 144 145 146 147 148 149 150 151 152 153 154 155 156 157 158 159 160 161 162 163 171 172 173 174 179 193 194 195 196 197 198 199 200 201 202 203 204 205 206 207 208 209 210 211 212 213 214 215 216 217 218 219 220 221 222 223 224 225 226 227 228 229 230 231 232 233 234 235 236 237 238 239 240 241 242 243 244 245 246 247 248 249 250 257 276 278 279 280 281 309 339 340 341 342 348 349 350 351 352 365 366 367 370 371 382 383 399 400 402 0
2 3 4 5 6 7 8 9 12 26 27 28 29 30 31 32 33 34 35 36 37 38 39 49 52 53 54 55 56 60 61 101 119 120 129 130 131 132 133 134 139 140 141 142 143 144 145 146 147 148 149 150 151 152 153 154 155 156 157 158 159 160 161 162 163 171 172 173 174 179 193 194 195 196 197 198 199 200 201 202 203 204 205 206 207 208 209 210 211 212 213 214 215 216 217 218 219 220 221 222 223 224 225 226 227 228 229 230 231 232 233 234 235 236 237 238 239 240 241 242 243 244 245 246 247 248 249 250 257 276 278 279 280 281 309 339 340 341 342 348 349 350 351 352 365 366 367 370 371 382 383 399 400 402 0
2 3 4 5 6 7 8 9 12 26 27 28 29 30 31 32 33 34 35 36 37 38 39 49 52 53 54 55 56 60 61 101 119 120 129 130 131 132 133 134 139 140 141 142 143 144 145 146 147 148 149 150 151 152 153 154 155 156 157 158 159 160 161 162 163 171 172 173 174 179 193 194 195 196 197 198 199 200 201 202 203 204 205 206 207 208 209 210 211 212 213 214 215 216 217 218 219 220 221 222 223 224 225 226 227 228 229 230 231 232 233 234 235 236 237 238 239 240 241 242 243 244 245 246 247 248 249 250 257 276 278 279 280 281 309 339 340 341 342 348 349 350 351 352 365 366 367 370 371 382 383 399 400 402 0
2 3 4 5 6 7 8 9 12 26 27 28 29 30 31 32 33 34 35 36 37 38 39 49 52 53 54 55 56 60 61 101 119 120 129 130 131 132 133 134 139 140 141 142 143 144 145 146 147 148 149 150 151 152 153 154 155 156 157 158 159 160 161 162 163 171 172 173 174 179 193 194 195 196 197 198 199 200 201 202 203 204 205 206 207 208 209 210 211 212 213 214 215 216 217 218 219 220 221 222 223 224 225 226 227 228 229 230 231 232 233 234 235 236 237 238 239 240 241 242 243 244 245 246 247 248 249 250 257 276 278 279 280 281 309 339 340 341 342 348 349 350 351 352 365 366 367 370 371 382 383 399 400 402 0
2 3 4 5 6 7 8 9 12 26 27 28 29 30 31 32 33 34 35 36 37 38 39 49 52 53 54 55 56 60 61 101 119 120 129 130 131 132 133 134 139 140 141 142 143 144 145 146 147 148 149 150 151 152 153 154 155 156 157 158 159 160 161 162 163 171 172 173 174 179 193 194 195 196 197 198 199 200 201 202 203 204 205 206 207 208 209 210 211 212 213 214 215 216 217 218 219 220 221 222 223 224 225 226 227 228 229 230 231 232 233 234 235 236 237 238 239 240 241 242 243 244 245 246 247 248 249 250 257 276 278 279 280 281 339 340 341 342 348 349 350 351 352 365 366 367 370 371 382 383 399 400 402 0
42 43 74 75 77 108 125 180 181 182 188 189 190 191 192 277 296 299 300 334 335 336 345 353 355 386 387 403 416 0
18 19 20 21 23 24 25 45 57 78 80 112 113 114 115 116 117 118 123 124 137 138 258 261 262 263 264 265 266 267 268 269 270 271 272 273 274 282 283 284 297 298 302 313 314 315 316 317 318 319 320 321 322 323 324 325 326 327 328 329 331 332 333 338 347 354 357 358 359 360 361 363 364 369 374 378 379 380 381 389 390 391 394 395 398 404 405 406 407 408 409 410 411 412 413 414 415 0
42 43 74 75 77 108 125 180 181 182 188 189 190 191 192 277 296 299 300 334 335 336 353 355 386 387 403 416 0
14 15 16 41 44 47 48 51 62 63 81 82 83 84 85 86 87 88 89 90 91 92 93 94 95 96 97 98 99 109 110 111 126 127 128 183 184 185 186 187 356 384 393 417 0
18 19 20 21 23 24 25 45 57 78 80 112 113 114 115 116 117 118 123 124 137 138 258 261 262 263 264 265 266 267 268 269 270 271 272 273 274 275 282 283 284 297 298 302 313 314 315 316 317 318 319 320 321 322 323 324 325 326 327 328 329 331 332 333 338 347 354 357 358 359 360 361 363 364 369 374 378 379 380 381 389 390 391 394 395 398 404 405 406 407 408 409 410 411 412 413 414 415 0
18 23 24 25 78 102 113 114 115 116 117 122 123 124 137 138 258 261 262 266 267 268 269 270 271 272 273 274 275 297 298 302 312 313 319 320 322 323 327 330 331 332 333 345 347 354 357 358 359 369 378 379 381 397 398 404 407 408 412 414 415 0
18 23 24 25 78 102 113 114 115 116 117 122 123 124 137 138 258 261 262 266 267 268 269 270 271 272 273 274 275 297 298 302 312 313 319 320 322 323 327 330 331 332 333 345 347 354 357 358 359 369 378 379 381 397 398 404 407 408 412 414 415 0
18 19 20 21 23 24 25 45 57 78 80 112 113 114 115 116 117 118 123 124 137 138 258 261 262 263 264 265 266 267 268 269 270 271 272 273 274 282 283 284 297 298 313 314 315 316 317 318 319 320 321 322 323 324 325 326 327 328 329 331 332 333 338 347 354 357 360 361 363 364 369 374 378 379 380 381 389 390 391 394 395 398 404 405 406 407 408 409 410 411 412 413 414 415 0
14 18 19 20 21 23 24 25 45 57 78 80 112 113 114 115 116 117 118 123 124 137 138 165 166 258 261 262 263 264 265 266 267 268 269 270 271 272 273 274 275 282 283 284 297 298 313 314 315 316 317 318 319 320 321 322 323 324 325 326 327 328 329 331 332 333 338 347 354 357 360 361 363 364 369 374 378 379 380 381 389 390 391 394 395 398 404 405 406 407 408 409 410 411 412 413 414 415 0
10 11 13 64 65 66 67 68 69 70 71 72 73 105 106 107 136 175 176 177 178 287 303 304 305 343 344 346 362 372 373 385 396 0
14 15 16 18 19 20 21 24 25 41 44 45 51 57 63 78 80 81 82 83 84 85 86 91 92 93 95 96 97 98 99 109 111 112 113 114 115 116 117 118 123 124 126 127 128 137 164 165 166 183 184 185 186 187 261 262 263 264 265 266 267 268 269 270 271 272 273 274 275 282 283 284 297 298 314 315 316 317 318 319 320 321 322 323 324 325 326 327 328 329 331 332 333 338 347 354 357 360 361 363 364 369 374 375 378 379 380 381 384 389 390 391 393 395 398 404 405 406 407 408 409 410 411 412 413 414 415 0
18 19 20 21 23 24 25 45 57 78 80 112 113 114 115 116 117 118 123 124 137 138 164 165 166 258 261 262 263 264 265 266 267 268 269 270 271 272 273 274 282 283 284 297 298 313 314 315 316 317 318 319 320 321 322 323 324 325 326 327 328 329 331 332 333 338 347 354 357 360 361 363 364 369 374 375 378 379 380 381 389 390 391 394 395 398 404 405 406 407 408 409 410 411 412 413 414 415 0
2 3 4 5 6 7 8 9 12 26 27 28 29 30 31 32 33 34 35 36 37 38 39 49 52 53 54 55 56 60 61 101 119 120 129 130 131 132 133 134 139 140 141 142 143 144 145 146 147 148 149 150 151 152 153 154 155 156 157 158 159 160 161 162 163 171 172 173 174 179 193 194 195 196 197 198 199 200 201 202 203 204 205 206 207 208 209 210 211 212 213 214 215 216 217 218 219 220 221 222 223 224 225 226 227 228 229 230 231 232 233 234 235 236 237 238 239 240 241 242 243 244 245 246 247 248 249 250 257 259 260 276 278 279 280 281 309 337 339 340 341 342 348 349 350 351 352 365 366 367 370 371 382 383 399 400 402 0
2 3 4 5 6 7 8 9 12 26 27 28 29 30 31 32 33 34 35 36 37 38 39 49 52 53 54 55 56 60 61 101 119 120 129 130 131 132 133 134 139 140 141 142 143 144 145 146 147 148 149 150 151 152 153 154 155 156 157 158 159 160 161 162 163 171 172 173 174 179 193 194 195 196 197 198 199 200 201 202 203 204 205 206 207 208 209 210 211 212 213 214 215 216 217 218 219 220 221 222 223 224 225 226 227 228 229 230 231 232 233 234 235 236 237 238 239 240 241 242 243 244 245 246 247 248 249 250 257 276 278 279 280 281 339 340 341 342 348 349 350 351 352 365 366 367 370 371 382 383 399 400 402 0
2 3 4 5 6 7 8 9 12 26 27 28 29 30 31 32 33 34 35 36 37 38 39 49 52 53 54 55 56 60 61 101 119 120 129 130 131 132 133 134 139 140 141 142 143 144 145 146 147 148 149 150 151 152 153 154 155 156 157 158 159 160 161 162 163 171 172 173 174 179 193 194 195 196 197 198 199 200 201 202 203 204 205 206 207 208 209 210 211 212 213 214 215 216 217 218 219 220 221 222 223 224 225 226 227 228 229 230 231 232 233 234 235 236 237 238 239 240 241 242 243 244 245 246 247 248 249 250 257 276 278 279 280 281 339 340 341 342 348 349 350 351 352 365 366 367 370 371 382 383 399 400 402 0
17 103 167 168 169 170 251 252 253 254 255 256 288 289 290 291 292 295 306 307 308 368 388 392 0
18 19 20 21 23 24 25 45 57 78 80 112 113 114 115 116 117 118 123 124 137 138 258 261 262 263 264 265 266 267 268 269 270 271 272 273 274 275 282 283 284 297 298 302 313 314 315 316 317 318 319 320 321 322 323 324 325 326 327 328 329 331 332 333 338 347 354 357 358 359 360 361 363 364 369 374 378 379 380 381 389 390 391 394 395 398 404 405 406 407 408 409 410 411 412 413 414 415 0
2 3 4 5 6 7 8 9 12 26 27 28 29 30 31 32 33 34 35 36 37 38 39 49 52 53 54 55 56 60 61 101 119 120 129 130 131 132 133 134 139 140 141 142 143 144 145 146 147 148 149 150 151 152 153 154 155 156 157 158 159 160 161 162 163 171 172 173 174 179 193 194 195 196 197 198 199 200 201 202 203 204 205 206 207 208 209 210 211 212 213 214 215 216 217 218 219 220 221 222 223 224 225 226 227 228 229 230 231 232 233 234 235 236 237 238 239 240 241 242 243 244 245 246 247 248 249 250 257 276 278 279 280 281 309 339 340 341 342 348 349 350 351 352 365 366 367 370 371 382 383 399 400 402 0
2 3 4 5 6 7 8 9 12 26 27 28 29 30 31 32 33 34 35 36 37 38 39 49 52 53 54 55 56 60 61 101 119 120 129 130 131 132 133 134 139 140 141 142 143 144 145 146 147 148 149 150 151 152 153 154 155 156 157 158 159 160 161 162 163 171 172 173 174 179 193 194 195 196 197 198 199 200 201 202 203 204 205 206 207 208 209 210 211 212 213 214 215 216 217 218 219 220 221 222 223 224 225 226 227 228 229 230 231 232 233 234 235 236 237 238 239 240 241 242 243 244 245 246 247 248 249 250 257 276 278 279 280 281 309 339 340 341 342 348 349 350 351 352 365 366 367 370 371 382 383 399 400 402 0
10 11 13 64 65 66 67 68 69 70 71 72 73 105 106 107 136 175 176 177 178 287 303 304 305 343 344 346 362 372 373 385 396 0
10 11 13 64 65 66 67 68 69 70 71 72 73 105 106 107 136 175 176 177 178 287 303 304 305 343 344 346 362 372 373 385 396 0
14 15 16 18 19 20 21 24 25 41 44 45 51 57 63 78 80 81 82 83 84 85 86 91 92 93 95 96 97 98 99 109 111 112 113 114 115 116 117 118 123 124 126 127 128 137 164 165 166 183 184 185 186 187 261 262 263 264 265 266 267 268 269 270 271 272 273 274 275 282 283 284 297 298 314 315 316 317 318 319 320 321 322 323 324 325 326 327 328 329 331 332 333 338 347 354 357 360 361 363 364 369 374 375 378 379 380 381 389 390 391 393 395 398 404 405 406 407 408 409 410 411 412 413 414 415 0
20 21 46 57 58 59 79 80 110 118 164 165 166 264 265 282 283 284 285 311 314 316 317 318 324 329 363 364 374 375 376 377 389 390 391 401 405 410 0
1 46 50 58 59 79 121 164 165 166 285 286 301 311 375 376 377 401 0
1 46 50 58 59 79 121 164 165 166 285 286 301 311 375 376 377 401 0
18 19 20 21 23 24 25 45 57 78 80 112 113 114 115 116 117 118 123 124 137 138 258 261 262 263 264 265 266 267 268 269 270 271 272 273 274 275 282 283 284 297 298 302 313 314 315 316 317 318 319 320 321 322 323 324 325 326 327 328 329 331 332 333 338 347 354 357 358 359 360 361 363 364 369 374 378 379 380 381 389 390 391 394 395 398 404 405 406 407 408 409 410 411 412 413 414 415 0
18 19 20 21 23 24 25 45 57 78 80 112 113 114 115 116 117 118 123 124 137 138 258 261 262 263 264 265 266 267 268 269 270 271 272 273 274 275 282 283 284 297 298 302 313 314 315 316 317 318 319 320 321 322 323 324 325 326 327 328 329 331 332 333 338 347 354 357 358 359 360 361 363 364 369 374 378 379 380 381 389 390 391 394 395 398 404 405 406 407 408 409 410 411 412 413 414 415 0
18 19 20 21 23 24 25 45 57 78 80 112 113 114 115 116 117 118 123 124 137 138 166 258 261 262 263 264 265 266 267 268 269 270 271 272 273 274 282 283 284 297 298 313 314 315 316 317 318 319 320 321 322 323 324 325 326 327 328 329 331 332 338 347 354 357 360 361 363 364 369 374 378 379 380 381 389 390 391 394 395 398 404 405 406 407 408 409 410 411 412 413 414 415 0
18 19 20 21 23 24 25 45 57 78 80 112 113 114 115 116 117 118 123 124 137 138 258 261 262 263 264 265 266 267 268 269 270 271 272 273 274 282 283 284 297 298 313 314 315 316 317 318 319 320 321 322 323 324 325 326 327 328 329 331 332 333 338 347 354 357 358 359 360 361 363 364 369 374 378 379 380 381 389 390 391 394 395 398 404 405 406 407 408 409 410 411 412 413 414 415 0
2 3 4 5 6 7 8 9 12 26 27 28 29 30 31 32 33 34 35 36 37 38 39 49 52 53 54 55 56 60 61 101 119 120 129 130 131 132 133 134 139 140 141 142 143 144 145 146 147 148 149 150 151 152 153 154 155 156 157 158 159 160 161 162 163 171 172 173 174 179 193 194 195 196 197 198 199 200 201 202 203 204 205 206 207 208 209 210 211 212 213 214 215 216 217 218 219 220 221 222 223 224 225 226 227 228 229 230 231 232 233 234 235 236 237 238 239 240 241 242 243 244 245 246 247 248 249 250 257 276 278 279 280 281 309 339 340 341 342 348 349 350 351 352 365 366 367 370 371 382 383 399 400 402 0
2 3 4 5 6 7 8 9 12 26 27 28 29 30 31 32 33 34 35 36 37 38 39 49 52 53 54 55 56 60 61 101 119 120 129 130 131 132 133 134 139 140 141 142 143 144 145 146 147 148 149 150 151 152 153 154 155 156 157 158 159 160 161 162 163 171 172 173 174 179 193 194 195 196 197 198 199 200 201 202 203 204 205 206 207 208 209 210 211 212 213 214 215 216 217 218 219 220 221 222 223 224 225 226 227 228 229 230 231 232 233 234 235 236 237 238 239 240 241 242 243 244 245 246 247 248 249 250 257 276 278 279 280 281 309 339 340 341 342 348 349 350 351 352 365 366 367 370 371 382 383 399 400 402 0
14 15 16 41 44 47 48 51 57 62 63 76 81 82 83 84 85 86 87 88 89 90 91 92 93 94 95 96 97 98 99 109 110 111 118 126 127 128 183 184 185 186 187 314 315 316 317 329 356 363 384 393 405 417 0
10 11 13 64 65 66 67 68 69 70 71 72 73 105 106 107 136 175 176 177 178 287 303 304 305 343 344 346 362 372 373 385 396 0
42 43 74 75 77 108 125 180 181 182 188 189 190 191 192 277 296 299 300 334 335 336 345 353 355 386 387 403 416 0
42 43 74 75 77 108 125 180 181 182 188 189 190 191 192 277 296 299 300 334 335 336 345 353 355 386 387 403 416 0
17 167 168 169 170 251 252 253 254 255 256 260 288 289 290 291 292 295 306 307 308 368 388 392 0
18 19 20 21 24 25 45 46 57 78 79 80 112 113 114 115 116 117 118 123 124 137 164 165 166 261 262 263 264 265 266 267 268 269 270 271 272 273 274 282 283 284 285 297 298 311 316 317 318 319 320 321 322 323 324 325 326 327 328 329 331 332 338 347 354 357 360 361 363 364 369 374 375 378 379 380 381 389 390 391 394 395 398 401 405 406 407 408 409 410 411 412 413 414 415 0
18 19 20 21 24 25 45 46 57 78 79 80 112 113 114 115 116 117 118 123 124 137 164 165 166 261 262 263 264 265 266 267 268 269 270 271 272 273 274 282 283 284 285 297 298 311 316 317 318 319 320 321 322 323 324 325 326 327 328 329 331 332 338 347 354 357 360 361 363 364 369 374 375 378 379 380 381 389 390 391 394 395 398 401 405 406 407 408 409 410 411 412 413 414 415 0
18 19 20 21 24 25 45 46 57 78 79 80 112 113 114 115 116 117 118 123 124 164 165 166 261 262 263 264 265 266 267 268 269 270 271 272 273 274 282 283 284 285 297 298 311 314 316 317 318 319 320 321 322 323 324 325 326 327 328 329 331 332 338 347 354 357 360 361 363 364 369 374 375 378 379 380 381 389 390 391 394 395 398 401 405 406 407 408 409 410 411 412 413 414 415 0
17 167 168 169 170 251 252 253 254 255 256 288 289 290 291 292 295 306 307 308 368 388 392 0
14 15 16 41 44 47 48 51 57 62 63 76 81 82 83 84 85 86 87 88 89 90 91 92 93 94 95 96 97 98 99 109 110 111 118 126 127 128 183 184 185 186 187 314 315 316 317 329 356 363 374 384 393 405 417 0
18 19 20 21 24 25 45 78 80 112 113 114 115 116 117 123 124 137 258 261 262 263 264 265 266 267 268 269 270 271 272 273 274 282 283 284 297 298 318 319 320 321 322 323 324 325 326 327 328 331 332 338 347 354 357 360 361 364 369 378 379 380 381 389 390 391 394 395 398 406 407 408 409 410 411 412 413 414 415 0
18 19 20 21 23 24 25 45 46 57 78 79 80 112 113 114 115 116 117 118 123 124 137 138 165 166 258 261 262 263 264 265 266 267 268 269 270 271 272 273 274 282 283 284 297 298 313 314 316 317 318 319 320 321 322 323 324 325 326 327 328 329 331 332 338 347 354 357 360 361 363 364 369 374 378 379 380 381 389 390 391 394 395 398 405 406 407 408 409 410 411 412 413 414 415 0
10 11 13 64 65 66 67 68 69 70 71 72 73 105 106 107 136 175 176 177 178 287 303 304 305 343 344 346 362 372 373 385 396 0
14 23 57 102 118 122 137 138 181 258 266 269 271 274 275 302 312 313 314 315 316 317 329 330 333 345 347 358 359 397 404 405 0
18 19 20 21 23 24 25 45 57 78 80 112 113 114 115 116 117 118 123 124 137 138 258 261 262 263 264 265 266 267 268 269 270 271 272 273 274 282 283 284 297 298 302 313 314 315 316 317 318 319 320 321 322 323 324 325 326 327 328 329 331 332 333 338 347 354 357 358 359 360 361 363 364 369 374 378 379 380 381 389 390 391 394 395 398 404 405 406 407 408 409 410 411 412 413 414 415 0
2 3 4 5 6 7 8 9 12 26 27 28 29 30 31 32 33 34 35 36 37 38 39 49 52 53 54 55 56 60 61 101 119 120 129 130 131 132 133 134 139 140 141 142 143 144 145 146 147 148 149 150 151 152 153 154 155 156 157 158 159 160 161 162 163 171 172 173 174 179 193 194 195 196 197 198 199 200 201 202 203 204 205 206 207 208 209 210 211 212 213 214 215 216 217 218 219 220 221 222 223 224 225 226 227 228 229 230 231 232 233 234 235 236 237 238 239 240 241 242 243 244 245 246 247 248 249 250 257 276 278 279 280 281 339 340 341 342 348 349 350 351 352 365 366 367 370 371 382 383 399 400 402 0
2 3 4 5 6 7 8 9 12 26 27 28 29 30 31 32 33 34 35 36 37 38 39 49 52 53 54 55 56 60 61 101 119 120 129 130 131 132 133 134 139 140 141 142 143 144 145 146 147 148 149 150 151 152 153 154 155 156 157 158 159 160 161 162 163 171 172 173 174 179 193 194 195 196 197 198 199 200 201 202 203 204 205 206 207 208 209 210 211 212 213 214 215 216 217 218 219 220 221 222 223 224 225 226 227 228 229 230 231 232 233 234 235 236 237 238 239 240 241 242 243 244 245 246 247 248 249 250 257 276 278 279 280 281 309 339 340 341 342 348 349 350 351 352 365 366 367 370 371 382 383 399 400 402 0
1 20 21 46 50 58 59 79 80 121 164 165 166 282 283 284 285 286 301 311 375 376 377 389 390 391 401 0
2 3 4 5 6 7 8 9 12 26 27 28 29 30 31 32 33 34 35 36 37 38 39 49 52 53 54 55 56 60 61 101 119 120 129 130 131 132 133 134 139 140 141 142 143 144 145 146 147 148 149 150 151 152 153 154 155 156 157 158 159 160 161 162 163 171 172 173 174 179 193 194 195 196 197 198 199 200 201 202 203 204 205 206 207 208 209 210 211 212 213 214 215 216 217 218 219 220 221 222 223 224 225 226 227 228 229 230 231 232 233 234 235 236 237 238 239 240 241 242 243 244 245 246 247 248 249 250 257 276 278 279 280 281 309 339 340 341 342 348 349 350 351 352 365 366 367 370 371 382 383 399 400 402 0
42 43 74 75 77 108 125 180 181 182 188 189 190 191 192 277 296 299 300 334 335 336 345 353 355 386 387 403 416 0
14 18 19 23 24 25 45 57 78 102 112 113 114 115 116 117 118 122 123 124 137 138 258 261 262 263 264 265 266 267 268 269 270 271 272 273 274 275 297 298 302 313 314 315 316 317 318 319 320 321 322 323 324 325 326 327 328 329 330 331 332 333 338 345 347 354 357 358 359 360 361 363 364 369 374 378 379 380 381 397 398 404 405 406 407 408 409 410 411 412 413 414 415 0
14 15 16 18 19 20 21 24 25 41 44 45 46 47 48 51 57 63 78 80 81 82 83 84 85 86 91 92 93 94 95 96 97 98 99 109 110 111 112 113 114 115 116 117 118 123 124 126 127 128 137 164 165 166 183 184 185 186 187 261 262 263 264 265 266 267 268 269 270 271 272 273 274 275 282 283 284 297 298 314 315 316 317 318 319 320 321 322 323 324 325 326 327 328 329 331 332 333 338 347 354 357 360 361 363 364 369 374 375 378 379 380 381 384 389 390 391 393 395 397 398 404 405 406 407 408 409 410 411 412 413 414 415 0
18 19 20 21 23 24 25 45 46 57 78 79 80 112 113 114 115 116 117 118 123 124 137 138 258 261 262 263 264 265 266 267 268 269 270 271 272 273 274 282 283 284 297 298 313 314 316 317 318 319 320 321 322 323 324 325 326 327 328 329 331 332 338 347 354 357 360 361 363 364 369 374 378 379 380 381 389 390 391 394 395 398 404 405 406 407 408 409 410 411 412 413 414 415 0
18 19 20 21 23 24 25 45 57 78 80 112 113 114 115 116 117 118 123 124 137 138 258 261 262 263 264 265 266 267 268 269 270 271 272 273 274 282 283 284 297 298 313 314 315 316 317 318 319 320 321 322 323 324 325 326 327 328 329 331 332 333 338 347 354 357 358 359 360 361 363 364 369 374 378 379 380 381 389 390 391 394 395 398 404 405 406 407 408 409 410 411 412 413 414 415 0
18 19 20 21 23 24 25 45 57 78 80 112 113 114 115 116 117 118 123 124 137 138 258 261 262 263 264 265 266 267 268 269 270 271 272 273 274 275 282 283 284 297 298 302 313 314 315 316 317 318 319 320 321 322 323 324 325 326 327 328 329 331 332 333 338 347 354 357 358 359 360 361 363 364 369 374 378 379 380 381 389 390 391 394 395 398 404 405 406 407 408 409 410 411 412 413 414 415 0
18 19 20 21 23 24 25 45 46 57 78 80 112 113 114 115 116 117 118 123 124 137 138 166 258 261 262 263 264 265 266 267 268 269 270 271 272 273 274 282 283 284 297 298 313 314 315 316 317 318 319 320 321 322 323 324 325 326 327 328 329 331 332 333 338 347 354 357 360 361 363 364 369 374 378 379 380 381 389 390 391 394 395 398 404 405 406 407 408 409 410 411 412 413 414 415 0
18 19 20 21 23 24 25 45 57 78 80 112 113 114 115 116 117 118 123 124 137 138 164 165 166 258 261 262 263 264 265 266 267 268 269 270 271 272 273 274 282 283 284 297 298 313 314 315 316 317 318 319 320 321 322 323 324 325 326 327 328 329 331 332 333 338 347 354 357 360 361 363 364 369 374 375 378 379 380 381 389 390 391 394 395 398 404 405 406 407 408 409 410 411 412 413 414 415 0
18 19 20 21 23 24 25 45 57 78 80 112 113 114 115 116 117 118 123 124 137 138 258 261 262 263 264 265 266 267 268 269 270 271 272 273 274 275 282 283 284 297 298 313 314 315 316 317 318 319 320 321 322 323 324 325 326 327 328 329 331 332 333 338 347 354 357 360 361 363 364 369 374 378 379 380 381 389 390 391 394 395 398 404 405 406 407 408 409 410 411 412 413 414 415 0
18 19 20 21 23 24 25 45 57 78 80 112 113 114 115 116 117 118 123 124 137 138 258 261 262 263 264 265 266 267 268 269 270 271 272 273 274 275 282 283 284 297 298 302 313 314 315 316 317 318 319 320 321 322 323 324 325 326 327 328 329 331 332 333 338 347 354 357 358 359 360 361 363 364 369 374 378 379 380 381 389 390 391 394 395 398 404 405 406 407 408 409 410 411 412 413 414 415 0
18 19 20 21 23 24 25 45 46 57 78 80 112 113 114 115 116 117 118 123 124 137 138 258 261 262 263 264 265 266 267 268 269 270 271 272 273 274 282 283 284 297 298 313 314 315 316 317 318 319 320 321 322 323 324 325 326 327 328 329 331 332 333 338 347 354 357 360 361 363 364 369 374 378 379 380 381 389 390 391 394 395 398 404 405 406 407 408 409 410 411 412 413 414 415 0
18 19 20 21 23 24 25 45 57 78 80 112 113 114 115 116 117 118 123 124 137 138 258 261 262 263 264 265 266 267 268 269 270 271 272 273 274 282 283 284 297 298 302 313 314 315 316 317 318 319 320 321 322 323 324 325 326 327 328 329 331 332 333 338 347 354 357 358 359 360 361 363 364 369 374 378 379 380 381 389 390 391 394 395 398 404 405 406 407 408 409 410 411 412 413 414 415 0
18 19 20 21 23 24 25 45 57 78 80 112 113 114 115 116 117 118 123 124 137 138 258 261 262 263 264 265 266 267 268 269 270 271 272 273 274 282 283 284 297 298 302 313 314 315 316 317 318 319 320 321 322 323 324 325 326 327 328 329 331 332 333 338 347 354 357 358 359 360 361 363 364 369 374 378 379 380 381 389 390 391 394 395 398 404 405 406 407 408 409 410 411 412 413 414 415 0
42 43 74 75 77 108 125 180 181 182 188 189 190 191 192 277 296 299 300 334 335 336 345 353 355 386 387 403 416 0
14 15 16 41 44 47 48 51 57 62 63 76 81 82 83 84 85 86 87 88 89 90 91 92 93 94 95 96 97 98 99 109 110 111 126 127 128 183 184 185 186 187 314 315 316 317 356 384 393 417 0
1 418 0
-418 419 0
2 -418 420 0
-420 421 0
3 -420 422 0
-422 423 0
4 -422 424 0
-424 425 0
5 -424 426 0
-426 427 0
6 -426 428 0
-428 429 0
7 -428 430 0
-430 431 0
8 -430 432 0
-432 433 0
9 -432 434 0
-434 435 0
10 -434 436 0
-436 437 0
11 -436 438 0
-438 439 0
12 -438 440 0
-440 441 0
13 -440 442 0
-442 443 0
14 -442 444 0
-444 445 0
15 -444 446 0
-446 447 0
16 -446 448 0
-448 449 0
17 -448 450 0
-450 451 0
18 -450 452 0
-452 453 0
19 -452 454 0
-454 455 0
20 -454 456 0
-456 457 0
21 -456 458 0
-458 459 0
22 -458 460 0
-460 461 0
23 -460 462 0
-462 463 0
24 -462 464 0
-464 465 0
25 -464 466 0
-466 467 0
26 -466 468 0
-468 469 0
27 -468 470 0
-470 471 0
28 -470 472 0
-472 473 0
29 -472 474 0
-474 475 0
30 -474 476 0
-476 477 0
31 -476 478 0
-478 479 0
32 -478 480 0
-480 481 0
33 -480 482 0
-482 483 0
34 -482 484 0
-484 485 0
35 -484 486 0
-486 487 0
36 -486 488 0
-488 489 0
37 -488 490 0
-490 491 0
38 -490 492 0
-492 493 0
39 -492 494 0
-494 495 0
40 -494 496 0
-496 497 0
41 -496 498 0
-498 499 0
42 -498 500 0
-500 501 0
43 -500 502 0
-502 503 0
44 -502 504 0
-504 505 0
45 -504 506 0
-506 507 0
46 -506 508 0
-508 509 0
47 -508 510 0
-510 511 0
48 -510 512 0
-512 513 0
49 -512 514 0
-514 515 0
50 -514 516 0
-516 517 0
51 -516 518 0
-518 519 0
52 -518 520 0
-520 521 0
53 -520 522 0
-522 523 0
54 -522 524 0
-524 525 0
55 -524 526 0
-526 527 0
56 -526 528 0
-528 529 0
57 -528 530 0
-530 531 0
58 -530 532 0
-532 533 0
59 -532 534 0
-534 535 0
60 -534 536 0
-536 537 0
61 -536 538 0
-538 539 0
62 -538 540 0
-540 541 0
63 -540 542 0
-542 543 0
64 -542 544 0
-544 545 0
65 -544 546 0
-546 547 0
66 -546 548 0
-548 549 0
67 -548 550 0
-550 551 0
68 -550 552 0
-552 553 0
69 -552 554 0
-554 555 0
70 -554 556 0
-556 557 0
71 -556 558 0
-558 559 0
72 -558 560 0
-560 561 0
73 -560 562 0
-562 563 0
74 -562 564 0
-564 565 0
75 -564 566 0
-566 567 0
76 -566 568 0
-568 569 0
77 -568 570 0
-570 571 0
78 -570 572 0
-572 573 0
79 -572 574 0
-574 575 0
80 -574 576 0
-576 577 0
81 -576 578 0
-578 579 0
82 -578 580 0
-580 581 0
83 -580 582 0
-582 583 0
84 -582 584 0
-584 585 0
85 -584 586 0
-586 587 0
86 -586 588 0
-588 589 0
87 -588 590 0
-590 591 0
88 -590 592 0
-592 593 0
89 -592 594 0
-594 595 0
90 -594 596 0
-596 597 0
91 -596 598 0
-598 599 0
92 -598 600 0
-600 601 0
93 -600 602 0
-602 603 0
94 -602 604 0
-604 605 0
95 -604 606 0
-606 607 0
96 -606 608 0
-608 609 0
97 -608 610 0
-610 611 0
98 -610 612 0
-612 613 0
99 -612 614 0
-614 615 0
100 -614 616 0
-616 617 0
101 -616 618 0
-618 619 0
102 -618 620 0
-620 621 0
103 -620 622 0
-622 623 0
104 -622 624 0
-624 625 0
105 -624 626 0
-626 627 0
106 -626 628 0
-628 629 0
107 -628 630 0
-630 631 0
108 -630 632 0
-632 633 0
109 -632 634 0
-634 635 0
110 -634 636 0
-636 637 0
111 -636 638 0
-638 639 0
112 -638 640 0
-640 641 0
113 -640 642 0
-642 643 0
114 -642 644 0
-644 645 0
115 -644 646 0
-646 647 0
116 -646 648 0
-648 649 0
117 -648 650 0
-650 651 0
118 -650 652 0
-652 653 0
119 -652 654 0
-654 655 0
120 -654 656 0
-656 657 0
121 -656 658 0
-658 659 0
122 -658 660 0
-660 661 0
123 -660 662 0
-662 663 0
124 -662 664 0
-664 665 0
125 -664 666 0
-666 667 0
126 -666 668 0
-668 669 0
127 -668 670 0
-670 671 0
128 -670 672 0
-672 673 0
129 -672 674 0
-674 675 0
130 -674 676 0
-676 677 0
131 -676 678 0
-678 679 0
132 -678 680 0
-680 681 0
133 -680 682 0
-682 683 0
134 -682 684 0
-684 685 0
135 -684 686 0
-686 687 0
136 -686 688 0
-688 689 0
137 -688 690 0
-690 691 0
138 -690 692 0
-692 693 0
139 -692 694 0
-694 695 0
140 -694 696 0
-696 697 0
141 -696 698 0
-698 699 0
142 -698 700 0
-700 701 0
143 -700 702 0
-702 703 0
144 -702 704 0
-704 705 0
145 -704 706 0
-706 707 0
146 -706 708 0
-708 709 0
147 -708 710 0
-710 711 0
148 -710 712 0
-712 713 0
149 -712 714 0
-714 715 0
150 -714 716 0
-716 717 0
151 -716 718 0
-718 719 0
152 -718 720 0
-720 721 0
153 -720 722 0
-722 723 0
154 -722 724 0
-724 725 0
155 -724 726 0
-726 727 0
156 -726 728 0
-728 729 0
157 -728 730 0
-730 731 0
158 -730 732 0
-732 733 0
159 -732 734 0
-734 735 0
160 -734 736 0
-736 737 0
161 -736 738 0
-738 739 0
162 -738 740 0
-740 741 0
163 -740 742 0
-742 743 0
164 -742 744 0
-744 745 0
165 -744 746 0
-746 747 0
166 -746 748 0
-748 749 0
167 -748 750 0
-750 751 0
168 -750 752 0
-752 753 0
169 -752 754 0
-754 755 0
170 -754 756 0
-756 757 0
171 -756 758 0
-758 759 0
172 -758 760 0
-760 761 0
173 -760 762 0
-762 763 0
174 -762 764 0
-764 765 0
175 -764 766 0
-766 767 0
176 -766 768 0
-768 769 0
177 -768 770 0
-770 771 0
178 -770 772 0
-772 773 0
179 -772 774 0
-774 775 0
180 -774 776 0
-776 777 0
181 -776 778 0
-778 779 0
182 -778 780 0
-780 781 0
183 -780 782 0
-782 783 0
184 -782 784 0
-784 785 0
185 -784 786 0
-786 787 0
186 -786 788 0
-788 789 0
187 -788 790 0
-790 791 0
188 -790 792 0
-792 793 0
189 -792 794 0
-794 795 0
190 -794 796 0
-796 797 0
191 -796 798 0
-798 799 0
192 -798 800 0
-800 801 0
193 -800 802 0
-802 803 0
194 -802 804 0
-804 805 0
195 -804 806 0
-806 807 0
196 -806 808 0
-808 809 0
197 -808 810 0
-810 811 0
198 -810 812 0
-812 813 0
199 -812 814 0
-814 815 0
200 -814 816 0
-816 817 0
201 -816 818 0
-818 819 0
202 -818 820 0
-820 821 0
203 -820 822 0
-822 823 0
204 -822 824 0
-824 825 0
205 -824 826 0
-826 827 0
206 -826 828 0
-828 829 0
207 -828 830 0
-830 831 0
208 -830 832 0
-832 833 0
209 -832 834 0
-834 835 0
210 -834 836 0
-836 837 0
211 -836 838 0
-838 839 0
212 -838 840 0
-840 841 0
213 -840 842 0
-842 843 0
214 -842 844 0
-844 845 0
215 -844 846 0
-846 847 0
216 -846 848 0
-848 849 0
217 -848 850 0
-850 851 0
218 -850 852 0
-852 853 0
219 -852 854 0
-854 855 0
220 -854 856 0
-856 857 0
221 -856 858 0
-858 859 0
222 -858 860 0
-860 861 0
223 -860 862 0
-862 863 0
224 -862 864 0
-864 865 0
225 -864 866 0
-866 867 0
226 -866 868 0
-868 869 0
227 -868 870 0
-870 871 0
228 -870 872 0
-872 873 0
229 -872 874 0
-874 875 0
230 -874 876 0
-876 877 0
231 -876 878 0
-878 879 0
232 -878 880 0
-880 881 0
233 -880 882 0
-882 883 0
234 -882 884 0
-884 885 0
235 -884 886 0
-886 887 0
236 -886 888 0
-888 889 0
237 -888 890 0
-890 891 0
238 -890 892 0
-892 893 0
239 -892 894 0
-894 895 0
240 -894 896 0
-896 897 0
241 -896 898 0
-898 899 0
242 -898 900 0
-900 901 0
243 -900 902 0
-902 903 0
244 -902 904 0
-904 905 0
245 -904 906 0
-906 907 0
246 -906 908 0
-908 909 0
247 -908 910 0
-910 911 0
248 -910 912 0
-912 913 0
249 -912 914 0
-914 915 0
250 -914 916 0
-916 917 0
251 -916 918 0
-918 919 0
252 -918 920 0
-920 921 0
253 -920 922 0
-922 923 0
254 -922 924 0
-924 925 0
255 -924 926 0
-926 927 0
256 -926 928 0
-928 929 0
257 -928 930 0
-930 931 0
258 -930 932 0
-932 933 0
259 -932 934 0
-934 935 0
260 -934 936 0
-936 937 0
261 -936 938 0
-938 939 0
262 -938 940 0
-940 941 0
263 -940 942 0
-942 943 0
264 -942 944 0
-944 945 0
265 -944 946 0
-946 947 0
266 -946 948 0
-948 949 0
267 -948 950 0
-950 951 0
268 -950 952 0
-952 953 0
269 -952 954 0
-954 955 0
270 -954 956 0
-956 957 0
271 -956 958 0
-958 959 0
272 -958 960 0
-960 961 0
273 -960 962 0
-962 963 0
274 -962 964 0
-964 965 0
275 -964 966 0
-966 967 0
276 -966 968 0
-968 969 0
277 -968 970 0
-970 971 0
278 -970 972 0
-972 973 0
279 -972 974 0
-974 975 0
280 -974 976 0
-976 977 0
281 -976 978 0
-978 979 0
282 -978 980 0
-980 981 0
283 -980 982 0
-982 983 0
284 -982 984 0
-984 985 0
285 -984 986 0
-986 987 0
286 -986 988 0
-988 989 0
287 -988 990 0
-990 991 0
288 -990 992 0
-992 993 0
289 -992 994 0
-994 995 0
290 -994 996 0
-996 997 0
291 -996 998 0
-998 999 0
292 -998 1000 0
-1000 1001 0
293 -1000 1002 0
-1002 1003 0
294 -1002 1004 0
-1004 1005 0
295 -1004 1006 0
-1006 1007 0
296 -1006 1008 0
-1008 1009 0
297 -1008 1010 0
-1010 1011 0
298 -1010 1012 0
-1012 1013 0
299 -1012 1014 0
-1014 1015 0
300 -1014 1016 0
-1016 1017 0
301 -1016 1018 0
-1018 1019 0
302 -1018 1020 0
-1020 1021 0
303 -1020 1022 0
-1022 1023 0
304 -1022 1024 0
-1024 1025 0
305 -1024 1026 0
-1026 1027 0
306 -1026 1028 0
-1028 1029 0
307 -1028 1030 0
-1030 1031 0
308 -1030 1032 0
-1032 1033 0
309 -1032 1034 0
-1034 1035 0
310 -1034 1036 0
-1036 1037 0
311 -1036 1038 0
-1038 1039 0
312 -1038 1040 0
-1040 1041 0
313 -1040 1042 0
-1042 1043 0
314 -1042 1044 0
-1044 1045 0
315 -1044 1046 0
-1046 1047 0
316 -1046 1048 0
-1048 1049 0
317 -1048 1050 0
-1050 1051 0
318 -1050 1052 0
-1052 1053 0
319 -1052 1054 0
-1054 1055 0
320 -1054 1056 0
-1056 1057 0
321 -1056 1058 0
-1058 1059 0
322 -1058 1060 0
-1060 1061 0
323 -1060 1062 0
-1062 1063 0
324 -1062 1064 0
-1064 1065 0
325 -1064 1066 0
-1066 1067 0
326 -1066 1068 0
-1068 1069 0
327 -1068 1070 0
-1070 1071 0
328 -1070 1072 0
-1072 1073 0
329 -1072 1074 0
-1074 1075 0
330 -1074 1076 0
-1076 1077 0
331 -1076 1078 0
-1078 1079 0
332 -1078 1080 0
-1080 1081 0
333 -1080 1082 0
-1082 1083 0
334 -1082 1084 0
-1084 1085 0
335 -1084 1086 0
-1086 1087 0
336 -1086 1088 0
-1088 1089 0
337 -1088 1090 0
-1090 1091 0
338 -1090 1092 0
-1092 1093 0
339 -1092 1094 0
-1094 1095 0
340 -1094 1096 0
-1096 1097 0
341 -1096 1098 0
-1098 1099 0
342 -1098 1100 0
-1100 1101 0
343 -1100 1102 0
-1102 1103 0
344 -1102 1104 0
-1104 1105 0
345 -1104 1106 0
-1106 1107 0
346 -1106 1108 0
-1108 1109 0
347 -1108 1110 0
-1110 1111 0
348 -1110 1112 0
-1112 1113 0
349 -1112 1114 0
-1114 1115 0
350 -1114 1116 0
-1116 1117 0
351 -1116 1118 0
-1118 1119 0
352 -1118 1120 0
-1120 1121 0
353 -1120 1122 0
-1122 1123 0
354 -1122 1124 0
-1124 1125 0
355 -1124 1126 0
-1126 1127 0
356 -1126 1128 0
-1128 1129 0
357 -1128 1130 0
-1130 1131 0
358 -1130 1132 0
-1132 1133 0
359 -1132 1134 0
-1134 1135 0
360 -1134 1136 0
-1136 1137 0
361 -1136 1138 0
-1138 1139 0
362 -1138 1140 0
-1140 1141 0
363 -1140 1142 0
-1142 1143 0
364 -1142 1144 0
-1144 1145 0
365 -1144 1146 0
-1146 1147 0
366 -1146 1148 0
-1148 1149 0
367 -1148 1150 0
-1150 1151 0
368 -1150 1152 0
-1152 1153 0
369 -1152 1154 0
-1154 1155 0
370 -1154 1156 0
-1156 1157 0
371 -1156 1158 0
-1158 1159 0
372 -1158 1160 0
-1160 1161 0
373 -1160 1162 0
-1162 1163 0
374 -1162 1164 0
-1164 1165 0
375 -1164 1166 0
-1166 1167 0
376 -1166 1168 0
-1168 1169 0
377 -1168 1170 0
-1170 1171 0
378 -1170 1172 0
-1172 1173 0
379 -1172 1174 0
-1174 1175 0
380 -1174 1176 0
-1176 1177 0
381 -1176 1178 0
-1178 1179 0
382 -1178 1180 0
-1180 1181 0
383 -1180 1182 0
-1182 1183 0
384 -1182 1184 0
-1184 1185 0
385 -1184 1186 0
-1186 1187 0
386 -1186 1188 0
-1188 1189 0
387 -1188 1190 0
-1190 1191 0
388 -1190 1192 0
-1192 1193 0
389 -1192 1194 0
-1194 1195 0
390 -1194 1196 0
-1196 1197 0
391 -1196 1198 0
-1198 1199 0
392 -1198 1200 0
-1200 1201 0
393 -1200 1202 0
-1202 1203 0
394 -1202 1204 0
-1204 1205 0
395 -1204 1206 0
-1206 1207 0
396 -1206 1208 0
-1208 1209 0
397 -1208 1210 0
-1210 1211 0
398 -1210 1212 0
-1212 1213 0
399 -1212 1214 0
-1214 1215 0
400 -1214 1216 0
-1216 1217 0
401 -1216 1218 0
-1218 1219 0
402 -1218 1220 0
-1220 1221 0
403 -1220 1222 0
-1222 1223 0
404 -1222 1224 0
-1224 1225 0
405 -1224 1226 0
-1226 1227 0
406 -1226 1228 0
-1228 1229 0
407 -1228 1230 0
-1230 1231 0
408 -1230 0
2 419 0
-419 1232 0
3 -419 421 0
-421 1233 0
4 -421 423 0
-423 1234 0
5 -423 425 0
-425 1235 0
6 -425 427 0
-427 1236 0
7 -427 429 0
-429 1237 0
8 -429 431 0
-431 1238 0
9 -431 433 0
-433 1239 0
10 -433 435 0
-435 1240 0
11 -435 437 0
-437 1241 0
12 -437 439 0
-439 1242 0
13 -439 441 0
-441 1243 0
14 -441 443 0
-443 1244 0
15 -443 445 0
-445 1245 0
16 -445 447 0
-447 1246 0
17 -447 449 0
-449 1247 0
18 -449 451 0
-451 1248 0
19 -451 453 0
-453 1249 0
20 -453 455 0
-455 1250 0
21 -455 457 0
-457 1251 0
22 -457 459 0
-459 1252 0
23 -459 461 0
-461 1253 0
24 -461 463 0
-463 1254 0
25 -463 465 0
-465 1255 0
26 -465 467 0
-467 1256 0
27 -467 469 0
-469 1257 0
28 -469 471 0
-471 1258 0
29 -471 473 0
-473 1259 0
30 -473 475 0
-475 1260 0
31 -475 477 0
-477 1261 0
32 -477 479 0
-479 1262 0
33 -479 481 0
-481 1263 0
34 -481 483 0
-483 1264 0
35 -483 485 0
-485 1265 0
36 -485 487 0
-487 1266 0
37 -487 489 0
-489 1267 0
38 -489 491 0
-491 1268 0
39 -491 493 0
-493 1269 0
40 -493 495 0
-495 1270 0
41 -495 497 0
-497 1271 0
42 -497 499 0
-499 1272 0
43 -499 501 0
-501 1273 0
44 -501 503 0
-503 1274 0
45 -503 505 0
-505 1275 0
46 -505 507 0
-507 1276 0
47 -507 509 0
-509 1277 0
48 -509 511 0
-511 1278 0
49 -511 513 0
-513 1279 0
50 -513 515 0
-515 1280 0
51 -515 517 0
-517 1281 0
52 -517 519 0
-519 1282 0
53 -519 521 0
-521 1283 0
54 -521 523 0
-523 1284 0
55 -523 525 0
-525 1285 0
56 -525 527 0
-527 1286 0
57 -527 529 0
-529 1287 0
58 -529 531 0
-531 1288 0
59 -531 533 0
-533 1289 0
60 -533 535 0
-535 1290 0
61 -535 537 0
-537 1291 0
62 -537 539 0
-539 1292 0
63 -539 541 0
-541 1293 0
64 -541 543 0
-543 1294 0
65 -543 545 0
-545 1295 0
66 -545 547 0
-547 1296 0
67 -547 549 0
-549 1297 0
68 -549 551 0
-551 1298 0
69 -551 553 0
-553 1299 0
70 -553 555 0
-555 1300 0
71 -555 557 0
-557 1301 0
72 -557 559 0
-559 1302 0
73 -559 561 0
-561 1303 0
74 -561 563 0
-563 1304 0
75 -563 565 0
-565 1305 0
76 -565 567 0
-567 1306 0
77 -567 569 0
-569 1307 0
78 -569 571 0
-571 1308 0
79 -571 573 0
-573 1309 0
80 -573 575 0
-575 1310 0
81 -575 577 0
-577 1311 0
82 -577 579 0
-579 1312 0
83 -579 581 0
-581 1313 0
84 -581 583 0
-583 1314 0
85 -583 585 0
-585 1315 0
86 -585 587 0
-587 1316 0
87 -587 589 0
-589 1317 0
88 -589 591 0
-591 1318 0
89 -591 593 0
-593 1319 0
90 -593 595 0
-595 1320 0
91 -595 597 0
-597 1321 0
92 -597 599 0
-599 1322 0
93 -599 601 0
-601 1323 0
94 -601 603 0
-603 1324 0
95 -603 605 0
-605 1325 0
96 -605 607 0
-607 1326 0
97 -607 609 0
-609 1327 0
98 -609 611 0
-611 1328 0
99 -611 613 0
-613 1329 0
100 -613 615 0
-615 1330 0
101 -615 617 0
-617 1331 0
102 -617 619 0
-619 1332 0
103 -619 621 0
-621 1333 0
104 -621 623 0
-623 1334 0
105 -623 625 0
-625 1335 0
106 -625 627 0
-627 1336 0
107 -627 629 0
-629 1337 0
108 -629 631 0
-631 1338 0
109 -631 633 0
-633 1339 0
110 -633 635 0
-635 1340 0
111 -635 637 0
-637 1341 0
112 -637 639 0
-639 1342 0
113 -639 641 0
-641 1343 0
114 -641 643 0
-643 1344 0
115 -643 645 0
-645 1345 0
116 -645 647 0
-647 1346 0
117 -647 649 0
-649 1347 0
118 -649 651 0
-651 1348 0
119 -651 653 0
-653 1349 0
120 -653 655 0
-655 1350 0
121 -655 657 0
-657 1351 0
122 -657 659 0
-659 1352 0
123 -659 661 0
-661 1353 0
124 -661 663 0
-663 1354 0
125 -663 665 0
-665 1355 0
126 -665 667 0
-667 1356 0
127 -667 669 0
-669 1357 0
128 -669 671 0
-671 1358 0
129 -671 673 0
-673 1359 0
130 -673 675 0
-675 1360 0
131 -675 677 0
-677 1361 0
132 -677 679 0
-679 1362 0
133 -679 681 0
-681 1363 0
134 -681 683 0
-683 1364 0
135 -683 685 0
-685 1365 0
136 -685 687 0
-687 1366 0
137 -687 689 0
-689 1367 0
138 -689 691 0
-691 1368 0
139 -691 693 0
-693 1369 0
140 -693 695 0
-695 1370 0
141 -695 697 0
-697 1371 0
142 -697 699 0
-699 1372 0
143 -699 701 0
-701 1373 0
144 -701 703 0
-703 1374 0
145 -703 705 0
-705 1375 0
146 -705 707 0
-707 1376 0
147 -707 709 0
-709 1377 0
148 -709 711 0
-711 1378 0
149 -711 713 0
-713 1379 0
150 -713 715 0
-715 1380 0
151 -715 717 0
-717 1381 0
152 -717 719 0
-719 1382 0
153 -719 721 0
-721 1383 0
154 -721 723 0
-723 1384 0
155 -723 725 0
-725 1385 0
156 -725 727 0
-727 1386 0
157 -727 729 0
-729 1387 0
158 -729 731 0
-731 1388 0
159 -731 733 0
-733 1389 0
160 -733 735 0
-735 1390 0
161 -735 737 0
-737 1391 0
162 -737 739 0
-739 1392 0
163 -739 741 0
-741 1393 0
164 -741 743 0
-743 1394 0
165 -743 745 0
-745 1395 0
166 -745 747 0
-747 1396 0
167 -747 749 0
-749 1397 0
168 -749 751 0
-751 1398 0
169 -751 753 0
-753 1399 0
170 -753 755 0
-755 1400 0
171 -755 757 0
-757 1401 0
172 -757 759 0
-759 1402 0
173 -759 761 0
-761 1403 0
174 -761 763 0
-763 1404 0
175 -763 765 0
-765 1405 0
176 -765 767 0
-767 1406 0
177 -767 769 0
-769 1407 0
178 -769 771 0
-771 1408 0
179 -771 773 0
-773 1409 0
180 -773 775 0
-775 1410 0
181 -775 777 0
-777 1411 0
182 -777 779 0
-779 1412 0
183 -779 781 0
-781 1413 0
184 -781 783 0
-783 1414 0
185 -783 785 0
-785 1415 0
186 -785 787 0
-787 1416 0
187 -787 789 0
-789 1417 0
188 -789 791 0
-791 1418 0
189 -791 793 0
-793 1419 0
190 -793 795 0
-795 1420 0
191 -795 797 0
-797 1421 0
192 -797 799 0
-799 1422 0
193 -799 801 0
-801 1423 0
194 -801 803 0
-803 1424 0
195 -803 805 0
-805 1425 0
196 -805 807 0
-807 1426 0
197 -807 809 0
-809 1427 0
198 -809 811 0
-811 1428 0
199 -811 813 0
-813 1429 0
200 -813 815 0
-815 1430 0
201 -815 817 0
-817 1431 0
202 -817 819 0
-819 1432 0
203 -819 821 0
-821 1433 0
204 -821 823 0
-823 1434 0
205 -823 825 0
-825 1435 0
206 -825 827 0
-827 1436 0
207 -827 829 0
-829 1437 0
208 -829 831 0
-831 1438 0
209 -831 833 0
-833 1439 0
210 -833 835 0
-835 1440 0
211 -835 837 0
-837 1441 0
212 -837 839 0
-839 1442 0
213 -839 841 0
-841 1443 0
214 -841 843 0
-843 1444 0
215 -843 845 0
-845 1445 0
216 -845 847 0
-847 1446 0
217 -847 849 0
-849 1447 0
218 -849 851 0
-851 1448 0
219 -851 853 0
-853 1449 0
220 -853 855 0
-855 1450 0
221 -855 857 0
-857 1451 0
222 -857 859 0
-859 1452 0
223 -859 861 0
-861 1453 0
224 -861 863 0
-863 1454 0
225 -863 865 0
-865 1455 0
226 -865 867 0
-867 1456 0
227 -867 869 0
-869 1457 0
228 -869 871 0
-871 1458 0
229 -871 873 0
-873 1459 0
230 -873 875 0
-875 1460 0
231 -875 877 0
-877 1461 0
232 -877 879 0
-879 1462 0
233 -879 881 0
-881 1463 0
234 -881 883 0
-883 1464 0
235 -883 885 0
-885 1465 0
236 -885 887 0
-887 1466 0
237 -887 889 0
-889 1467 0
238 -889 891 0
-891 1468 0
239 -891 893 0
-893 1469 0
240 -893 895 0
-895 1470 0
241 -895 897 0
-897 1471 0
242 -897 899 0
-899 1472 0
243 -899 901 0
-901 1473 0
244 -901 903 0
-903 1474 0
245 -903 905 0
-905 1475 0
246 -905 907 0
-907 1476 0
247 -907 909 0
-909 1477 0
248 -909 911 0
-911 1478 0
249 -911 913 0
-913 1479 0
250 -913 915 0
-915 1480 0
251 -915 917 0
-917 1481 0
252 -917 919 0
-919 1482 0
253 -919 921 0
-921 1483 0
254 -921 923 0
-923 1484 0
255 -923 925 0
-925 1485 0
256 -925 927 0
-927 1486 0
257 -927 929 0
-929 1487 0
258 -929 931 0
-931 1488 0
259 -931 933 0
-933 1489 0
260 -933 935 0
-935 1490 0
261 -935 937 0
-937 1491 0
262 -937 939 0
-939 1492 0
263 -939 941 0
-941 1493 0
264 -941 943 0
-943 1494 0
265 -943 945 0
-945 1495 0
266 -945 947 0
-947 1496 0
267 -947 949 0
-949 1497 0
268 -949 951 0
-951 1498 0
269 -951 953 0
-953 1499 0
270 -953 955 0
-955 1500 0
271 -955 957 0
-957 1501 0
272 -957 959 0
-959 1502 0
273 -959 961 0
-961 1503 0
274 -961 963 0
-963 1504 0
275 -963 965 0
-965 1505 0
276 -965 967 0
-967 1506 0
277 -967 969 0
-969 1507 0
278 -969 971 0
-971 1508 0
279 -971 973 0
-973 1509 0
280 -973 975 0
-975 1510 0
281 -975 977 0
-977 1511 0
282 -977 979 0
-979 1512 0
283 -979 981 0
-981 1513 0
284 -981 983 0
-983 1514 0
285 -983 985 0
-985 1515 0
286 -985 987 0
-987 1516 0
287 -987 989 0
-989 1517 0
288 -989 991 0
-991 1518 0
289 -991 993 0
-993 1519 0
290 -993 995 0
-995 1520 0
291 -995 997 0
-997 1521 0
292 -997 999 0
-999 1522 0
293 -999 1001 0
-1001 1523 0
294 -1001 1003 0
-1003 1524 0
295 -1003 1005 0
-1005 1525 0
296 -1005 1007 0
-1007 1526 0
297 -1007 1009 0
-1009 1527 0
298 -1009 1011 0
-1011 1528 0
299 -1011 1013 0
-1013 1529 0
300 -1013 1015 0
-1015 1530 0
301 -1015 1017 0
-1017 1531 0
302 -1017 1019 0
-1019 1532 0
303 -1019 1021 0
-1021 1533 0
304 -1021 1023 0
-1023 1534 0
305 -1023 1025 0
-1025 1535 0
306 -1025 1027 0
-1027 1536 0
307 -1027 1029 0
-1029 1537 0
308 -1029 1031 0
-1031 1538 0
309 -1031 1033 0
-1033 1539 0
310 -1033 1035 0
-1035 1540 0
311 -1035 1037 0
-1037 1541 0
312 -1037 1039 0
-1039 1542 0
313 -1039 1041 0
-1041 1543 0
314 -1041 1043 0
-1043 1544 0
315 -1043 1045 0
-1045 1545 0
316 -1045 1047 0
-1047 1546 0
317 -1047 1049 0
-1049 1547 0
318 -1049 1051 0
-1051 1548 0
319 -1051 1053 0
-1053 1549 0
320 -1053 1055 0
-1055 1550 0
321 -1055 1057 0
-1057 1551 0
322 -1057 1059 0
-1059 1552 0
323 -1059 1061 0
-1061 1553 0
324 -1061 1063 0
-1063 1554 0
325 -1063 1065 0
-1065 1555 0
326 -1065 1067 0
-1067 1556 0
327 -1067 1069 0
-1069 1557 0
328 -1069 1071 0
-1071 1558 0
329 -1071 1073 0
-1073 1559 0
330 -1073 1075 0
-1075 1560 0
331 -1075 1077 0
-1077 1561 0
332 -1077 1079 0
-1079 1562 0
333 -1079 1081 0
-1081 1563 0
334 -1081 1083 0
-1083 1564 0
335 -1083 1085 0
-1085 1565 0
336 -1085 1087 0
-1087 1566 0
337 -1087 1089 0
-1089 1567 0
338 -1089 1091 0
-1091 1568 0
339 -1091 1093 0
-1093 1569 0
340 -1093 1095 0
-1095 1570 0
341 -1095 1097 0
-1097 1571 0
342 -1097 1099 0
-1099 1572 0
343 -1099 1101 0
-1101 1573 0
344 -1101 1103 0
-1103 1574 0
345 -1103 1105 0
-1105 1575 0
346 -1105 1107 0
-1107 1576 0
347 -1107 1109 0
-1109 1577 0
348 -1109 1111 0
-1111 1578 0
349 -1111 1113 0
-1113 1579 0
350 -1113 1115 0
-1115 1580 0
351 -1115 1117 0
-1117 1581 0
352 -1117 1119 0
-1119 1582 0
353 -1119 1121 0
-1121 1583 0
354 -1121 1123 0
-1123 1584 0
355 -1123 1125 0
-1125 1585 0
356 -1125 1127 0
-1127 1586 0
357 -1127 1129 0
-1129 1587 0
358 -1129 1131 0
-1131 1588 0
359 -1131 1133 0
-1133 1589 0
360 -1133 1135 0
-1135 1590 0
361 -1135 1137 0
-1137 1591 0
362 -1137 1139 0
-1139 1592 0
363 -1139 1141 0
-1141 1593 0
364 -1141 1143 0
-1143 1594 0
365 -1143 1145 0
-1145 1595 0
366 -1145 1147 0
-1147 1596 0
367 -1147 1149 0
-1149 1597 0
368 -1149 1151 0
-1151 1598 0
369 -1151 1153 0
-1153 1599 0
370 -1153 1155 0
-1155 1600 0
371 -1155 1157 0
-1157 1601 0
372 -1157 1159 0
-1159 1602 0
373 -1159 1161 0
-1161 1603 0
374 -1161 1163 0
-1163 1604 0
375 -1163 1165 0
-1165 1605 0
376 -1165 1167 0
-1167 1606 0
377 -1167 1169 0
-1169 1607 0
378 -1169 1171 0
-1171 1608 0
379 -1171 1173 0
-1173 1609 0
380 -1173 1175 0
-1175 1610 0
381 -1175 1177 0
-1177 1611 0
382 -1177 1179 0
-1179 1612 0
383 -1179 1181 0
-1181 1613 0
384 -1181 1183 0
-1183 1614 0
385 -1183 1185 0
-1185 1615 0
386 -1185 1187 0
-1187 1616 0
387 -1187 1189 0
-1189 1617 0
388 -1189 1191 0
-1191 1618 0
389 -1191 1193 0
-1193 1619 0
390 -1193 1195 0
-1195 1620 0
391 -1195 1197 0
-1197 1621 0
392 -1197 1199 0
-1199 1622 0
393 -1199 1201 0
-1201 1623 0
394 -1201 1203 0
-1203 1624 0
395 -1203 1205 0
-1205 1625 0
396 -1205 1207 0
-1207 1626 0
397 -1207 1209 0
-1209 1627 0
398 -1209 1211 0
-1211 1628 0
399 -1211 1213 0
-1213 1629 0
400 -1213 1215 0
-1215 1630 0
401 -1215 1217 0
-1217 1631 0
402 -1217 1219 0
-1219 1632 0
403 -1219 1221 0
-1221 1633 0
404 -1221 1223 0
-1223 1634 0
405 -1223 1225 0
-1225 1635 0
406 -1225 1227 0
-1227 1636 0
407 -1227 1229 0
-1229 1637 0
408 -1229 1231 0
-1231 1638 0
409 -1231 0
3 1232 0
-1232 1639 0
4 -1232 1233 0
-1233 1640 0
5 -1233 1234 0
-1234 1641 0
6 -1234 1235 0
-1235 1642 0
7 -1235 1236 0
-1236 1643 0
8 -1236 1237 0
-1237 1644 0
9 -1237 1238 0
-1238 1645 0
10 -1238 1239 0
-1239 1646 0
11 -1239 1240 0
-1240 1647 0
12 -1240 1241 0
-1241 1648 0
13 -1241 1242 0
-1242 1649 0
14 -1242 1243 0
-1243 1650 0
15 -1243 1244 0
-1244 1651 0
16 -1244 1245 0
-1245 1652 0
17 -1245 1246 0
-1246 1653 0
18 -1246 1247 0
-1247 1654 0
19 -1247 1248 0
-1248 1655 0
20 -1248 1249 0
-1249 1656 0
21 -1249 1250 0
-1250 1657 0
22 -1250 1251 0
-1251 1658 0
23 -1251 1252 0
-1252 1659 0
24 -1252 1253 0
-1253 1660 0
25 -1253 1254 0
-1254 1661 0
26 -1254 1255 0
-1255 1662 0
27 -1255 1256 0
-1256 1663 0
28 -1256 1257 0
-1257 1664 0
29 -1257 1258 0
-1258 1665 0
30 -1258 1259 0
-1259 1666 0
31 -1259 1260 0
-1260 1667 0
32 -1260 1261 0
-1261 1668 0
33 -1261 1262 0
-1262 1669 0
34 -1262 1263 0
-1263 1670 0
35 -1263 1264 0
-1264 1671 0
36 -1264 1265 0
-1265 1672 0
37 -1265 1266 0
-1266 1673 0
38 -1266 1267 0
-1267 1674 0
39 -1267 1268 0
-1268 1675 0
40 -1268 1269 0
-1269 1676 0
41 -1269 1270 0
-1270 1677 0
42 -1270 1271 0
-1271 1678 0
43 -1271 1272 0
-1272 1679 0
44 -1272 1273 0
-1273 1680 0
45 -1273 1274 0
-1274 1681 0
46 -1274 1275 0
-1275 1682 0
47 -1275 1276 0
-1276 1683 0
48 -1276 1277 0
-1277 1684 0
49 -1277 1278 0
-1278 1685 0
50 -1278 1279 0
-1279 1686 0
51 -1279 1280 0
-1280 1687 0
52 -1280 1281 0
-1281 1688 0
53 -1281 1282 0
-1282 1689 0
54 -1282 1283 0
-1283 1690 0
55 -1283 1284 0
-1284 1691 0
56 -1284 1285 0
-1285 1692 0
57 -1285 1286 0
-1286 1693 0
58 -1286 1287 0
-1287 1694 0
59 -1287 1288 0
-1288 1695 0
60 -1288 1289 0
-1289 1696 0
61 -1289 1290 0
-1290 1697 0
62 -1290 1291 0
-1291 1698 0
63 -1291 1292 0
-1292 1699 0
64 -1292 1293 0
-1293 1700 0
65 -1293 1294 0
-1294 1701 0
66 -1294 1295 0
-1295 1702 0
67 -1295 1296 0
-1296 1703 0
68 -1296 1297 0
-1297 1704 0
69 -1297 1298 0
-1298 1705 0
70 -1298 1299 0
-1299 1706 0
71 -1299 1300 0
-1300 1707 0
72 -1300 1301 0
-1301 1708 0
73 -1301 1302 0
-1302 1709 0
74 -1302 1303 0
-1303 1710 0
75 -1303 1304 0
-1304 1711 0
76 -1304 1305 0
-1305 1712 0
77 -1305 1306 0
-1306 1713 0
78 -1306 1307 0
-1307 1714 0
79 -1307 1308 0
-1308 1715 0
80 -1308 1309 0
-1309 1716 0
81 -1309 1310 0
-1310 1717 0
82 -1310 1311 0
-1311 1718 0
83 -1311 1312 0
-1312 1719 0
84 -1312 1313 0
-1313 1720 0
85 -1313 1314 0
-1314 1721 0
86 -1314 1315 0
-1315 1722 0
87 -1315 1316 0
-1316 1723 0
88 -1316 1317 0
-1317 1724 0
89 -1317 1318 0
-1318 1725 0
90 -1318 1319 0
-1319 1726 0
91 -1319 1320 0
-1320 1727 0
92 -1320 1321 0
-1321 1728 0
93 -1321 1322 0
-1322 1729 0
94 -1322 1323 0
-1323 1730 0
95 -1323 1324 0
-1324 1731 0
96 -1324 1325 0
-1325 1732 0
97 -1325 1326 0
-1326 1733 0
98 -1326 1327 0
-1327 1734 0
99 -1327 1328 0
-1328 1735 0
100 -1328 1329 0
-1329 1736 0
101 -1329 1330 0
-1330 1737 0
102 -1330 1331 0
-1331 1738 0
103 -1331 1332 0
-1332 1739 0
104 -1332 1333 0
-1333 1740 0
105 -1333 1334 0
-1334 1741 0
106 -1334 1335 0
-1335 1742 0
107 -1335 1336 0
-1336 1743 0
108 -1336 1337 0
-1337 1744 0
109 -1337 1338 0
-1338 1745 0
110 -1338 1339 0
-1339 1746 0
111 -1339 1340 0
-1340 1747 0
112 -1340 1341 0
-1341 1748 0
113 -1341 1342 0
-1342 1749 0
114 -1342 1343 0
-1343 1750 0
115 -1343 1344 0
-1344 1751 0
116 -1344 1345 0
-1345 1752 0
117 -1345 1346 0
-1346 1753 0
118 -1346 1347 0
-1347 1754 0
119 -1347 1348 0
-1348 1755 0
120 -1348 1349 0
-1349 1756 0
121 -1349 1350 0
-1350 1757 0
122 -1350 1351 0
-1351 1758 0
123 -1351 1352 0
-1352 1759 0
124 -1352 1353 0
-1353 1760 0
125 -1353 1354 0
-1354 1761 0
126 -1354 1355 0
-1355 1762 0
127 -1355 1356 0
-1356 1763 0
128 -1356 1357 0
-1357 1764 0
129 -1357 1358 0
-1358 1765 0
130 -1358 1359 0
-1359 1766 0
131 -1359 1360 0
-1360 1767 0
132 -1360 1361 0
-1361 1768 0
133 -1361 1362 0
-1362 1769 0
134 -1362 1363 0
-1363 1770 0
135 -1363 1364 0
-1364 1771 0
136 -1364 1365 0
-1365 1772 0
137 -1365 1366 0
-1366 1773 0
138 -1366 1367 0
-1367 1774 0
139 -1367 1368 0
-1368 1775 0
140 -1368 1369 0
-1369 1776 0
141 -1369 1370 0
-1370 1777 0
142 -1370 1371 0
-1371 1778 0
143 -1371 1372 0
-1372 1779 0
144 -1372 1373 0
-1373 1780 0
145 -1373 1374 0
-1374 1781 0
146 -1374 1375 0
-1375 1782 0
147 -1375 1376 0
-1376 1783 0
148 -1376 1377 0
-1377 1784 0
149 -1377 1378 0
-1378 1785 0
150 -1378 1379 0
-1379 1786 0
151 -1379 1380 0
-1380 1787 0
152 -1380 1381 0
-1381 1788 0
153 -1381 1382 0
-1382 1789 0
154 -1382 1383 0
-1383 1790 0
155 -1383 1384 0
-1384 1791 0
156 -1384 1385 0
-1385 1792 0
157 -1385 1386 0
-1386 1793 0
158 -1386 1387 0
-1387 1794 0
159 -1387 1388 0
-1388 1795 0
160 -1388 1389 0
-1389 1796 0
161 -1389 1390 0
-1390 1797 0
162 -1390 1391 0
-1391 1798 0
163 -1391 1392 0
-1392 1799 0
164 -1392 1393 0
-1393 1800 0
165 -1393 1394 0
-1394 1801 0
166 -1394 1395 0
-1395 1802 0
167 -1395 1396 0
-1396 1803 0
168 -1396 1397 0
-1397 1804 0
169 -1397 1398 0
-1398 1805 0
170 -1398 1399 0
-1399 1806 0
171 -1399 1400 0
-1400 1807 0
172 -1400 1401 0
-1401 1808 0
173 -1401 1402 0
-1402 1809 0
174 -1402 1403 0
-1403 1810 0
175 -1403 1404 0
-1404 1811 0
176 -1404 1405 0
-1405 1812 0
177 -1405 1406 0
-1406 1813 0
178 -1406 1407 0
-1407 1814 0
179 -1407 1408 0
-1408 1815 0
180 -1408 1409 0
-1409 1816 0
181 -1409 1410 0
-1410 1817 0
182 -1410 1411 0
-1411 1818 0
183 -1411 1412 0
-1412 1819 0
184 -1412 1413 0
-1413 1820 0
185 -1413 1414 0
-1414 1821 0
186 -1414 1415 0
-1415 1822 0
187 -1415 1416 0
-1416 1823 0
188 -1416 1417 0
-1417 1824 0
189 -1417 1418 0
-1418 1825 0
190 -1418 1419 0
-1419 1826 0
191 -1419 1420 0
-1420 1827 0
192 -1420 1421 0
-1421 1828 0
193 -1421 1422 0
-1422 1829 0
194 -1422 1423 0
-1423 1830 0
195 -1423 1424 0
-1424 1831 0
196 -1424 1425 0
-1425 1832 0
197 -1425 1426 0
-1426 1833 0
198 -1426 1427 0
-1427 1834 0
199 -1427 1428 0
-1428 1835 0
200 -1428 1429 0
-1429 1836 0
201 -1429 1430 0
-1430 1837 0
202 -1430 1431 0
-1431 1838 0
203 -1431 1432 0
-1432 1839 0
204 -1432 1433 0
-1433 1840 0
205 -1433 1434 0
-1434 1841 0
206 -1434 1435 0
-1435 1842 0
207 -1435 1436 0
-1436 1843 0
208 -1436 1437 0
-1437 1844 0
209 -1437 1438 0
-1438 1845 0
210 -1438 1439 0
-1439 1846 0
211 -1439 1440 0
-1440 1847 0
212 -1440 1441 0
-1441 1848 0
213 -1441 1442 0
-1442 1849 0
214 -1442 1443 0
-1443 1850 0
215 -1443 1444 0
-1444 1851 0
216 -1444 1445 0
-1445 1852 0
217 -1445 1446 0
-1446 1853 0
218 -1446 1447 0
-1447 1854 0
219 -1447 1448 0
-1448 1855 0
220 -1448 1449 0
-1449 1856 0
221 -1449 1450 0
-1450 1857 0
222 -1450 1451 0
-1451 1858 0
223 -1451 1452 0
-1452 1859 0
224 -1452 1453 0
-1453 1860 0
225 -1453 1454 0
-1454 1861 0
226 -1454 1455 0
-1455 1862 0
227 -1455 1456 0
-1456 1863 0
228 -1456 1457 0
-1457 1864 0
229 -1457 1458 0
-1458 1865 0
230 -1458 1459 0
-1459 1866 0
231 -1459 1460 0
-1460 1867 0
232 -1460 1461 0
-1461 1868 0
233 -1461 1462 0
-1462 1869 0
234 -1462 1463 0
-1463 1870 0
235 -1463 1464 0
-1464 1871 0
236 -1464 1465 0
-1465 1872 0
237 -1465 1466 0
-1466 1873 0
238 -1466 1467 0
-1467 1874 0
239 -1467 1468 0
-1468 1875 0
240 -1468 1469 0
-1469 1876 0
241 -1469 1470 0
-1470 1877 0
242 -1470 1471 0
-1471 1878 0
243 -1471 1472 0
-1472 1879 0
244 -1472 1473 0
-1473 1880 0
245 -1473 1474 0
-1474 1881 0
246 -1474 1475 0
-1475 1882 0
247 -1475 1476 0
-1476 1883 0
248 -1476 1477 0
-1477 1884 0
249 -1477 1478 0
-1478 1885 0
250 -1478 1479 0
-1479 1886 0
251 -1479 1480 0
-1480 1887 0
252 -1480 1481 0
-1481 1888 0
253 -1481 1482 0
-1482 1889 0
254 -1482 1483 0
-1483 1890 0
255 -1483 1484 0
-1484 1891 0
256 -1484 1485 0
-1485 1892 0
257 -1485 1486 0
-1486 1893 0
258 -1486 1487 0
-1487 1894 0
259 -1487 1488 0
-1488 1895 0
260 -1488 1489 0
-1489 1896 0
261 -1489 1490 0
-1490 1897 0
262 -1490 1491 0
-1491 1898 0
263 -1491 1492 0
-1492 1899 0
264 -1492 1493 0
-1493 1900 0
265 -1493 1494 0
-1494 1901 0
266 -1494 1495 0
-1495 1902 0
267 -1495 1496 0
-1496 1903 0
268 -1496 1497 0
-1497 1904 0
269 -1497 1498 0
-1498 1905 0
270 -1498 1499 0
-1499 1906 0
271 -1499 1500 0
-1500 1907 0
272 -1500 1501 0
-1501 1908 0
273 -1501 1502 0
-1502 1909 0
274 -1502 1503 0
-1503 1910 0
275 -1503 1504 0
-1504 1911 0
276 -1504 1505 0
-1505 1912 0
277 -1505 1506 0
-1506 1913 0
278 -1506 1507 0
-1507 1914 0
279 -1507 1508 0
-1508 1915 0
280 -1508 1509 0
-1509 1916 0
281 -1509 1510 0
-1510 1917 0
282 -1510 1511 0
-1511 1918 0
283 -1511 1512 0
-1512 1919 0
284 -1512 1513 0
-1513 1920 0
285 -1513 1514 0
-1514 1921 0
286 -1514 1515 0
-1515 1922 0
287 -1515 1516 0
-1516 1923 0
288 -1516 1517 0
-1517 1924 0
289 -1517 1518 0
-1518 1925 0
290 -1518 1519 0
-1519 1926 0
291 -1519 1520 0
-1520 1927 0
292 -1520 1521 0
-1521 1928 0
293 -1521 1522 0
-1522 1929 0
294 -1522 1523 0
-1523 1930 0
295 -1523 1524 0
-1524 1931 0
296 -1524 1525 0
-1525 1932 0
297 -1525 1526 0
-1526 1933 0
298 -1526 1527 0
-1527 1934 0
299 -1527 1528 0
-1528 1935 0
300 -1528 1529 0
-1529 1936 0
301 -1529 1530 0
-1530 1937 0
302 -1530 1531 0
-1531 1938 0
303 -1531 1532 0
-1532 1939 0
304 -1532 1533 0
-1533 1940 0
305 -1533 1534 0
-1534 1941 0
306 -1534 1535 0
-1535 1942 0
307 -1535 1536 0
-1536 1943 0
308 -1536 1537 0
-1537 1944 0
309 -1537 1538 0
-1538 1945 0
310 -1538 1539 0
-1539 1946 0
311 -1539 1540 0
-1540 1947 0
312 -1540 1541 0
-1541 1948 0
313 -1541 1542 0
-1542 1949 0
314 -1542 1543 0
-1543 1950 0
315 -1543 1544 0
-1544 1951 0
316 -1544 1545 0
-1545 1952 0
317 -1545 1546 0
-1546 1953 0
318 -1546 1547 0
-1547 1954 0
319 -1547 1548 0
-1548 1955 0
320 -1548 1549 0
-1549 1956 0
321 -1549 1550 0
-1550 1957 0
322 -1550 1551 0
-1551 1958 0
323 -1551 1552 0
-1552 1959 0
324 -1552 1553 0
-1553 1960 0
325 -1553 1554 0
-1554 1961 0
326 -1554 1555 0
-1555 1962 0
327 -1555 1556 0
-1556 1963 0
328 -1556 1557 0
-1557 1964 0
329 -1557 1558 0
-1558 1965 0
330 -1558 1559 0
-1559 1966 0
331 -1559 1560 0
-1560 1967 0
332 -1560 1561 0
-1561 1968 0
333 -1561 1562 0
-1562 1969 0
334 -1562 1563 0
-1563 1970 0
335 -1563 1564 0
-1564 1971 0
336 -1564 1565 0
-1565 1972 0
337 -1565 1566 0
-1566 1973 0
338 -1566 1567 0
-1567 1974 0
339 -1567 1568 0
-1568 1975 0
340 -1568 1569 0
-1569 1976 0
341 -1569 1570 0
-1570 1977 0
342 -1570 1571 0
-1571 1978 0
343 -1571 1572 0
-1572 1979 0
344 -1572 1573 0
-1573 1980 0
345 -1573 1574 0
-1574 1981 0
346 -1574 1575 0
-1575 1982 0
347 -1575 1576 0
-1576 1983 0
348 -1576 1577 0
-1577 1984 0
349 -1577 1578 0
-1578 1985 0
350 -1578 1579 0
-1579 1986 0
351 -1579 1580 0
-1580 1987 0
352 -1580 1581 0
-1581 1988 0
353 -1581 1582 0
-1582 1989 0
354 -1582 1583 0
-1583 1990 0
355 -1583 1584 0
-1584 1991 0
356 -1584 1585 0
-1585 1992 0
357 -1585 1586 0
-1586 1993 0
358 -1586 1587 0
-1587 1994 0
359 -1587 1588 0
-1588 1995 0
360 -1588 1589 0
-1589 1996 0
361 -1589 1590 0
-1590 1997 0
362 -1590 1591 0
-1591 1998 0
363 -1591 1592 0
-1592 1999 0
364 -1592 1593 0
-1593 2000 0
365 -1593 1594 0
-1594 2001 0
366 -1594 1595 0
-1595 2002 0
367 -1595 1596 0
-1596 2003 0
368 -1596 1597 0
-1597 2004 0
369 -1597 1598 0
-1598 2005 0
370 -1598 1599 0
-1599 2006 0
371 -1599 1600 0
-1600 2007 0
372 -1600 1601 0
-1601 2008 0
373 -1601 1602 0
-1602 2009 0
374 -1602 1603 0
-1603 2010 0
375 -1603 1604 0
-1604 2011 0
376 -1604 1605 0
-1605 2012 0
377 -1605 1606 0
-1606 2013 0
378 -1606 1607 0
-1607 2014 0
379 -1607 1608 0
-1608 2015 0
380 -1608 1609 0
-1609 2016 0
381 -1609 1610 0
-1610 2017 0
382 -1610 1611 0
-1611 2018 0
383 -1611 1612 0
-1612 2019 0
384 -1612 1613 0
-1613 2020 0
385 -1613 1614 0
-1614 2021 0
386 -1614 1615 0
-1615 2022 0
387 -1615 1616 0
-1616 2023 0
388 -1616 1617 0
-1617 2024 0
389 -1617 1618 0
-1618 2025 0
390 -1618 1619 0
-1619 2026 0
391 -1619 1620 0
-1620 2027 0
392 -1620 1621 0
-1621 2028 0
393 -1621 1622 0
-1622 2029 0
394 -1622 1623 0
-1623 2030 0
395 -1623 1624 0
-1624 2031 0
396 -1624 1625 0
-1625 2032 0
397 -1625 1626 0
-1626 2033 0
398 -1626 1627 0
-1627 2034 0
399 -1627 1628 0
-1628 2035 0
400 -1628 1629 0
-1629 2036 0
401 -1629 1630 0
-1630 2037 0
402 -1630 1631 0
-1631 2038 0
403 -1631 1632 0
-1632 2039 0
404 -1632 1633 0
-1633 2040 0
405 -1633 1634 0
-1634 2041 0
406 -1634 1635 0
-1635 2042 0
407 -1635 1636 0
-1636 2043 0
408 -1636 1637 0
-1637 2044 0
409 -1637 1638 0
-1638 2045 0
410 -1638 0
4 1639 0
-1639 2046 0
5 -1639 1640 0
-1640 2047 0
6 -1640 1641 0
-1641 2048 0
7 -1641 1642 0
-1642 2049 0
8 -1642 1643 0
-1643 2050 0
9 -1643 1644 0
-1644 2051 0
10 -1644 1645 0
-1645 2052 0
11 -1645 1646 0
-1646 2053 0
12 -1646 1647 0
-1647 2054 0
13 -1647 1648 0
-1648 2055 0
14 -1648 1649 0
-1649 2056 0
15 -1649 1650 0
-1650 2057 0
16 -1650 1651 0
-1651 2058 0
17 -1651 1652 0
-1652 2059 0
18 -1652 1653 0
-1653 2060 0
19 -1653 1654 0
-1654 2061 0
20 -1654 1655 0
-1655 2062 0
21 -1655 1656 0
-1656 2063 0
22 -1656 1657 0
-1657 2064 0
23 -1657 1658 0
-1658 2065 0
24 -1658 1659 0
-1659 2066 0
25 -1659 1660 0
-1660 2067 0
26 -1660 1661 0
-1661 2068 0
27 -1661 1662 0
-1662 2069 0
28 -1662 1663 0
-1663 2070 0
29 -1663 1664 0
-1664 2071 0
30 -1664 1665 0
-1665 2072 0
31 -1665 1666 0
-1666 2073 0
32 -1666 1667 0
-1667 2074 0
33 -1667 1668 0
-1668 2075 0
34 -1668 1669 0
-1669 2076 0
35 -1669 1670 0
-1670 2077 0
36 -1670 1671 0
-1671 2078 0
37 -1671 1672 0
-1672 2079 0
38 -1672 1673 0
-1673 2080 0
39 -1673 1674 0
-1674 2081 0
40 -1674 1675 0
-1675 2082 0
41 -1675 1676 0
-1676 2083 0
42 -1676 1677 0
-1677 2084 0
43 -1677 1678 0
-1678 2085 0
44 -1678 1679 0
-1679 2086 0
45 -1679 1680 0
-1680 2087 0
46 -1680 1681 0
-1681 2088 0
47 -1681 1682 0
-1682 2089 0
48 -1682 1683 0
-1683 2090 0
49 -1683 1684 0
-1684 2091 0
50 -1684 1685 0
-1685 2092 0
51 -1685 1686 0
-1686 2093 0
52 -1686 1687 0
-1687 2094 0
53 -1687 1688 0
-1688 2095 0
54 -1688 1689 0
-1689 2096 0
55 -1689 1690 0
-1690 2097 0
56 -1690 1691 0
-1691 2098 0
57 -1691 1692 0
-1692 2099 0
58 -1692 1693 0
-1693 2100 0
59 -1693 1694 0
-1694 2101 0
60 -1694 1695 0
-1695 2102 0
61 -1695 1696 0
-1696 2103 0
62 -1696 1697 0
-1697 2104 0
63 -1697 1698 0
-1698 2105 0
64 -1698 1699 0
-1699 2106 0
65 -1699 1700 0
-1700 2107 0
66 -1700 1701 0
-1701 2108 0
67 -1701 1702 0
-1702 2109 0
68 -1702 1703 0
-1703 2110 0
69 -1703 1704 0
-1704 2111 0
70 -1704 1705 0
-1705 2112 0
71 -1705 1706 0
-1706 2113 0
72 -1706 1707 0
-1707 2114 0
73 -1707 1708 0
-1708 2115 0
74 -1708 1709 0
-1709 2116 0
75 -1709 1710 0
-1710 2117 0
76 -1710 1711 0
-1711 2118 0
77 -1711 1712 0
-1712 2119 0
78 -1712 1713 0
-1713 2120 0
79 -1713 1714 0
-1714 2121 0
80 -1714 1715 0
-1715 2122 0
81 -1715 1716 0
-1716 2123 0
82 -1716 1717 0
-1717 2124 0
83 -1717 1718 0
-1718 2125 0
84 -1718 1719 0
-1719 2126 0
85 -1719 1720 0
-1720 2127 0
86 -1720 1721 0
-1721 2128 0
87 -1721 1722 0
-1722 2129 0
88 -1722 1723 0
-1723 2130 0
89 -1723 1724 0
-1724 2131 0
90 -1724 1725 0
-1725 2132 0
91 -1725 1726 0
-1726 2133 0
92 -1726 1727 0
-1727 2134 0
93 -1727 1728 0
-1728 2135 0
94 -1728 1729 0
-1729 2136 0
95 -1729 1730 0
-1730 2137 0
96 -1730 1731 0
-1731 2138 0
97 -1731 1732 0
-1732 2139 0
98 -1732 1733 0
-1733 2140 0
99 -1733 1734 0
-1734 2141 0
100 -1734 1735 0
-1735 2142 0
101 -1735 1736 0
-1736 2143 0
102 -1736 1737 0
-1737 2144 0
103 -1737 1738 0
-1738 2145 0
104 -1738 1739 0
-1739 2146 0
105 -1739 1740 0
-1740 2147 0
106 -1740 1741 0
-1741 2148 0
107 -1741 1742 0
-1742 2149 0
108 -1742 1743 0
-1743 2150 0
109 -1743 1744 0
-1744 2151 0
110 -1744 1745 0
-1745 2152 0
111 -1745 1746 0
-1746 2153 0
112 -1746 1747 0
-1747 2154 0
113 -1747 1748 0
-1748 2155 0
114 -1748 1749 0
-1749 2156 0
115 -1749 1750 0
-1750 2157 0
116 -1750 1751 0
-1751 2158 0
117 -1751 1752 0
-1752 2159 0
118 -1752 1753 0
-1753 2160 0
119 -1753 1754 0
-1754 2161 0
120 -1754 1755 0
-1755 2162 0
121 -1755 1756 0
-1756 2163 0
122 -1756 1757 0
-1757 2164 0
123 -1757 1758 0
-1758 2165 0
124 -1758 1759 0
-1759 2166 0
125 -1759 1760 0
-1760 2167 0
126 -1760 1761 0
-1761 2168 0
127 -1761 1762 0
-1762 2169 0
128 -1762 1763 0
-1763 2170 0
129 -1763 1764 0
-1764 2171 0
130 -1764 1765 0
-1765 2172 0
131 -1765 1766 0
-1766 2173 0
132 -1766 1767 0
-1767 2174 0
133 -1767 1768 0
-1768 2175 0
134 -1768 1769 0
-1769 2176 0
135 -1769 1770 0
-1770 2177 0
136 -1770 1771 0
-1771 2178 0
137 -1771 1772 0
-1772 2179 0
138 -1772 1773 0
-1773 2180 0
139 -1773 1774 0
-1774 2181 0
140 -1774 1775 0
-1775 2182 0
141 -1775 1776 0
-1776 2183 0
142 -1776 1777 0
-1777 2184 0
143 -1777 1778 0
-1778 2185 0
144 -1778 1779 0
-1779 2186 0
145 -1779 1780 0
-1780 2187 0
146 -1780 1781 0
-1781 2188 0
147 -1781 1782 0
-1782 2189 0
148 -1782 1783 0
-1783 2190 0
149 -1783 1784 0
-1784 2191 0
150 -1784 1785 0
-1785 2192 0
151 -1785 1786 0
-1786 2193 0
152 -1786 1787 0
-1787 2194 0
153 -1787 1788 0
-1788 2195 0
154 -1788 1789 0
-1789 2196 0
155 -1789 1790 0
-1790 2197 0
156 -1790 1791 0
-1791 2198 0
157 -1791 1792 0
-1792 2199 0
158 -1792 1793 0
-1793 2200 0
159 -1793 1794 0
-1794 2201 0
160 -1794 1795 0
-1795 2202 0
161 -1795 1796 0
-1796 2203 0
162 -1796 1797 0
-1797 2204 0
163 -1797 1798 0
-1798 2205 0
164 -1798 1799 0
-1799 2206 0
165 -1799 1800 0
-1800 2207 0
166 -1800 1801 0
-1801 2208 0
167 -1801 1802 0
-1802 2209 0
168 -1802 1803 0
-1803 2210 0
169 -1803 1804 0
-1804 2211 0
170 -1804 1805 0
-1805 2212 0
171 -1805 1806 0
-1806 2213 0
172 -1806 1807 0
-1807 2214 0
173 -1807 1808 0
-1808 2215 0
174 -1808 1809 0
-1809 2216 0
175 -1809 1810 0
-1810 2217 0
176 -1810 1811 0
-1811 2218 0
177 -1811 1812 0
-1812 2219 0
178 -1812 1813 0
-1813 2220 0
179 -1813 1814 0
-1814 2221 0
180 -1814 1815 0
-1815 2222 0
181 -1815 1816 0
-1816 2223 0
182 -1816 1817 0
-1817 2224 0
183 -1817 1818 0
-1818 2225 0
184 -1818 1819 0
-1819 2226 0
185 -1819 1820 0
-1820 2227 0
186 -1820 1821 0
-1821 2228 0
187 -1821 1822 0
-1822 2229 0
188 -1822 1823 0
-1823 2230 0
189 -1823 1824 0
-1824 2231 0
190 -1824 1825 0
-1825 2232 0
191 -1825 1826 0
-1826 2233 0
192 -1826 1827 0
-1827 2234 0
193 -1827 1828 0
-1828 2235 0
194 -1828 1829 0
-1829 2236 0
195 -1829 1830 0
-1830 2237 0
196 -1830 1831 0
-1831 2238 0
197 -1831 1832 0
-1832 2239 0
198 -1832 1833 0
-1833 2240 0
199 -1833 1834 0
-1834 2241 0
200 -1834 1835 0
-1835 2242 0
201 -1835 1836 0
-1836 2243 0
202 -1836 1837 0
-1837 2244 0
203 -1837 1838 0
-1838 2245 0
204 -1838 1839 0
-1839 2246 0
205 -1839 1840 0
-1840 2247 0
206 -1840 1841 0
-1841 2248 0
207 -1841 1842 0
-1842 2249 0
208 -1842 1843 0
-1843 2250 0
209 -1843 1844 0
-1844 2251 0
210 -1844 1845 0
-1845 2252 0
211 -1845 1846 0
-1846 2253 0
212 -1846 1847 0
-1847 2254 0
213 -1847 1848 0
-1848 2255 0
214 -1848 1849 0
-1849 2256 0
215 -1849 1850 0
-1850 2257 0
216 -1850 1851 0
-1851 2258 0
217 -1851 1852 0
-1852 2259 0
218 -1852 1853 0
-1853 2260 0
219 -1853 1854 0
-1854 2261 0
220 -1854 1855 0
-1855 2262 0
221 -1855 1856 0
-1856 2263 0
222 -1856 1857 0
-1857 2264 0
223 -1857 1858 0
-1858 2265 0
224 -1858 1859 0
-1859 2266 0
225 -1859 1860 0
-1860 2267 0
226 -1860 1861 0
-1861 2268 0
227 -1861 1862 0
-1862 2269 0
228 -1862 1863 0
-1863 2270 0
229 -1863 1864 0
-1864 2271 0
230 -1864 1865 0
-1865 2272 0
231 -1865 1866 0
-1866 2273 0
232 -1866 1867 0
-1867 2274 0
233 -1867 1868 0
-1868 2275 0
234 -1868 1869 0
-1869 2276 0
235 -1869 1870 0
-1870 2277 0
236 -1870 1871 0
-1871 2278 0
237 -1871 1872 0
-1872 2279 0
238 -1872 1873 0
-1873 2280 0
239 -1873 1874 0
-1874 2281 0
240 -1874 1875 0
-1875 2282 0
241 -1875 1876 0
-1876 2283 0
242 -1876 1877 0
-1877 2284 0
243 -1877 1878 0
-1878 2285 0
244 -1878 1879 0
-1879 2286 0
245 -1879 1880 0
-1880 2287 0
246 -1880 1881 0
-1881 2288 0
247 -1881 1882 0
-1882 2289 0
248 -1882 1883 0
-1883 2290 0
249 -1883 1884 0
-1884 2291 0
250 -1884 1885 0
-1885 2292 0
251 -1885 1886 0
-1886 2293 0
252 -1886 1887 0
-1887 2294 0
253 -1887 1888 0
-1888 2295 0
254 -1888 1889 0
-1889 2296 0
255 -1889 1890 0
-1890 2297 0
256 -1890 1891 0
-1891 2298 0
257 -1891 1892 0
-1892 2299 0
258 -1892 1893 0
-1893 2300 0
259 -1893 1894 0
-1894 2301 0
260 -1894 1895 0
-1895 2302 0
261 -1895 1896 0
-1896 2303 0
262 -1896 1897 0
-1897 2304 0
263 -1897 1898 0
-1898 2305 0
264 -1898 1899 0
-1899 2306 0
265 -1899 1900 0
-1900 2307 0
266 -1900 1901 0
-1901 2308 0
267 -1901 1902 0
-1902 2309 0
268 -1902 1903 0
-1903 2310 0
269 -1903 1904 0
-1904 2311 0
270 -1904 1905 0
-1905 2312 0
271 -1905 1906 0
-1906 2313 0
272 -1906 1907 0
-1907 2314 0
273 -1907 1908 0
-1908 2315 0
274 -1908 1909 0
-1909 2316 0
275 -1909 1910 0
-1910 2317 0
276 -1910 1911 0
-1911 2318 0
277 -1911 1912 0
-1912 2319 0
278 -1912 1913 0
-1913 2320 0
279 -1913 1914 0
-1914 2321 0
280 -1914 1915 0
-1915 2322 0
281 -1915 1916 0
-1916 2323 0
282 -1916 1917 0
-1917 2324 0
283 -1917 1918 0
-1918 2325 0
284 -1918 1919 0
-1919 2326 0
285 -1919 1920 0
-1920 2327 0
286 -1920 1921 0
-1921 2328 0
287 -1921 1922 0
-1922 2329 0
288 -1922 1923 0
-1923 2330 0
289 -1923 1924 0
-1924 2331 0
290 -1924 1925 0
-1925 2332 0
291 -1925 1926 0
-1926 2333 0
292 -1926 1927 0
-1927 2334 0
293 -1927 1928 0
-1928 2335 0
294 -1928 1929 0
-1929 2336 0
295 -1929 1930 0
-1930 2337 0
296 -1930 1931 0
-1931 2338 0
297 -1931 1932 0
-1932 2339 0
298 -1932 1933 0
-1933 2340 0
299 -1933 1934 0
-1934 2341 0
300 -1934 1935 0
-1935 2342 0
301 -1935 1936 0
-1936 2343 0
302 -1936 1937 0
-1937 2344 0
303 -1937 1938 0
-1938 2345 0
304 -1938 1939 0
-1939 2346 0
305 -1939 1940 0
-1940 2347 0
306 -1940 1941 0
-1941 2348 0
307 -1941 1942 0
-1942 2349 0
308 -1942 1943 0
-1943 2350 0
309 -1943 1944 0
-1944 2351 0
310 -1944 1945 0
-1945 2352 0
311 -1945 1946 0
-1946 2353 0
312 -1946 1947 0
-1947 2354 0
313 -1947 1948 0
-1948 2355 0
314 -1948 1949 0
-1949 2356 0
315 -1949 1950 0
-1950 2357 0
316 -1950 1951 0
-1951 2358 0
317 -1951 1952 0
-1952 2359 0
318 -1952 1953 0
-1953 2360 0
319 -1953 1954 0
-1954 2361 0
320 -1954 1955 0
-1955 2362 0
321 -1955 1956 0
-1956 2363 0
322 -1956 1957 0
-1957 2364 0
323 -1957 1958 0
-1958 2365 0
324 -1958 1959 0
-1959 2366 0
325 -1959 1960 0
-1960 2367 0
326 -1960 1961 0
-1961 2368 0
327 -1961 1962 0
-1962 2369 0
328 -1962 1963 0
-1963 2370 0
329 -1963 1964 0
-1964 2371 0
330 -1964 1965 0
-1965 2372 0
331 -1965 1966 0
-1966 2373 0
332 -1966 1967 0
-1967 2374 0
333 -1967 1968 0
-1968 2375 0
334 -1968 1969 0
-1969 2376 0
335 -1969 1970 0
-1970 2377 0
336 -1970 1971 0
-1971 2378 0
337 -1971 1972 0
-1972 2379 0
338 -1972 1973 0
-1973 2380 0
339 -1973 1974 0
-1974 2381 0
340 -1974 1975 0
-1975 2382 0
341 -1975 1976 0
-1976 2383 0
342 -1976 1977 0
-1977 2384 0
343 -1977 1978 0
-1978 2385 0
344 -1978 1979 0
-1979 2386 0
345 -1979 1980 0
-1980 2387 0
346 -1980 1981 0
-1981 2388 0
347 -1981 1982 0
-1982 2389 0
348 -1982 1983 0
-1983 2390 0
349 -1983 1984 0
-1984 2391 0
350 -1984 1985 0
-1985 2392 0
351 -1985 1986 0
-1986 2393 0
352 -1986 1987 0
-1987 2394 0
353 -1987 1988 0
-1988 2395 0
354 -1988 1989 0
-1989 2396 0
355 -1989 1990 0
-1990 2397 0
356 -1990 1991 0
-1991 2398 0
357 -1991 1992 0
-1992 2399 0
358 -1992 1993 0
-1993 2400 0
359 -1993 1994 0
-1994 2401 0
360 -1994 1995 0
-1995 2402 0
361 -1995 1996 0
-1996 2403 0
362 -1996 1997 0
-1997 2404 0
363 -1997 1998 0
-1998 2405 0
364 -1998 1999 0
-1999 2406 0
365 -1999 2000 0
-2000 2407 0
366 -2000 2001 0
-2001 2408 0
367 -2001 2002 0
-2002 2409 0
368 -2002 2003 0
-2003 2410 0
369 -2003 2004 0
-2004 2411 0
370 -2004 2005 0
-2005 2412 0
371 -2005 2006 0
-2006 2413 0
372 -2006 2007 0
-2007 2414 0
373 -2007 2008 0
-2008 2415 0
374 -2008 2009 0
-2009 2416 0
375 -2009 2010 0
-2010 2417 0
376 -2010 2011 0
-2011 2418 0
377 -2011 2012 0
-2012 2419 0
378 -2012 2013 0
-2013 2420 0
379 -2013 2014 0
-2014 2421 0
380 -2014 2015 0
-2015 2422 0
381 -2015 2016 0
-2016 2423 0
382 -2016 2017 0
-2017 2424 0
383 -2017 2018 0
-2018 2425 0
384 -2018 2019 0
-2019 2426 0
385 -2019 2020 0
-2020 2427 0
386 -2020 2021 0
-2021 2428 0
387 -2021 2022 0
-2022 2429 0
388 -2022 2023 0
-2023 2430 0
389 -2023 2024 0
-2024 2431 0
390 -2024 2025 0
-2025 2432 0
391 -2025 2026 0
-2026 2433 0
392 -2026 2027 0
-2027 2434 0
393 -2027 2028 0
-2028 2435 0
394 -2028 2029 0
-2029 2436 0
395 -2029 2030 0
-2030 2437 0
396 -2030 2031 0
-2031 2438 0
397 -2031 2032 0
-2032 2439 0
398 -2032 2033 0
-2033 2440 0
399 -2033 2034 0
-2034 2441 0
400 -2034 2035 0
-2035 2442 0
401 -2035 2036 0
-2036 2443 0
402 -2036 2037 0
-2037 2444 0
403 -2037 2038 0
-2038 2445 0
404 -2038 2039 0
-2039 2446 0
405 -2039 2040 0
-2040 2447 0
406 -2040 2041 0
-2041 2448 0
407 -2041 2042 0
-2042 2449 0
408 -2042 2043 0
-2043 2450 0
409 -2043 2044 0
-2044 2451 0
410 -2044 2045 0
-2045 2452 0
411 -2045 0
5 2046 0
-2046 2453 0
6 -2046 2047 0
-2047 2454 0
7 -2047 2048 0
-2048 2455 0
8 -2048 2049 0
-2049 2456 0
9 -2049 2050 0
-2050 2457 0
10 -2050 2051 0
-2051 2458 0
11 -2051 2052 0
-2052 2459 0
12 -2052 2053 0
-2053 2460 0
13 -2053 2054 0
-2054 2461 0
14 -2054 2055 0
-2055 2462 0
15 -2055 2056 0
-2056 2463 0
16 -2056 2057 0
-2057 2464 0
17 -2057 2058 0
-2058 2465 0
18 -2058 2059 0
-2059 2466 0
19 -2059 2060 0
-2060 2467 0
20 -2060 2061 0
-2061 2468 0
21 -2061 2062 0
-2062 2469 0
22 -2062 2063 0
-2063 2470 0
23 -2063 2064 0
-2064 2471 0
24 -2064 2065 0
-2065 2472 0
25 -2065 2066 0
-2066 2473 0
26 -2066 2067 0
-2067 2474 0
27 -2067 2068 0
-2068 2475 0
28 -2068 2069 0
-2069 2476 0
29 -2069 2070 0
-2070 2477 0
30 -2070 2071 0
-2071 2478 0
31 -2071 2072 0
-2072 2479 0
32 -2072 2073 0
-2073 2480 0
33 -2073 2074 0
-2074 2481 0
34 -2074 2075 0
-2075 2482 0
35 -2075 2076 0
-2076 2483 0
36 -2076 2077 0
-2077 2484 0
37 -2077 2078 0
-2078 2485 0
38 -2078 2079 0
-2079 2486 0
39 -2079 2080 0
-2080 2487 0
40 -2080 2081 0
-2081 2488 0
41 -2081 2082 0
-2082 2489 0
42 -2082 2083 0
-2083 2490 0
43 -2083 2084 0
-2084 2491 0
44 -2084 2085 0
-2085 2492 0
45 -2085 2086 0
-2086 2493 0
46 -2086 2087 0
-2087 2494 0
47 -2087 2088 0
-2088 2495 0
48 -2088 2089 0
-2089 2496 0
49 -2089 2090 0
-2090 2497 0
50 -2090 2091 0
-2091 2498 0
51 -2091 2092 0
-2092 2499 0
52 -2092 2093 0
-2093 2500 0
53 -2093 2094 0
-2094 2501 0
54 -2094 2095 0
-2095 2502 0
55 -2095 2096 0
-2096 2503 0
56 -2096 2097 0
-2097 2504 0
57 -2097 2098 0
-2098 2505 0
58 -2098 2099 0
-2099 2506 0
59 -2099 2100 0
-2100 2507 0
60 -2100 2101 0
-2101 2508 0
61 -2101 2102 0
-2102 2509 0
62 -2102 2103 0
-2103 2510 0
63 -2103 2104 0
-2104 2511 0
64 -2104 2105 0
-2105 2512 0
65 -2105 2106 0
-2106 2513 0
66 -2106 2107 0
-2107 2514 0
67 -2107 2108 0
-2108 2515 0
68 -2108 2109 0
-2109 2516 0
69 -2109 2110 0
-2110 2517 0
70 -2110 2111 0
-2111 2518 0
71 -2111 2112 0
-2112 2519 0
72 -2112 2113 0
-2113 2520 0
73 -2113 2114 0
-2114 2521 0
74 -2114 2115 0
-2115 2522 0
75 -2115 2116 0
-2116 2523 0
76 -2116 2117 0
-2117 2524 0
77 -2117 2118 0
-2118 2525 0
78 -2118 2119 0
-2119 2526 0
79 -2119 2120 0
-2120 2527 0
80 -2120 2121 0
-2121 2528 0
81 -2121 2122 0
-2122 2529 0
82 -2122 2123 0
-2123 2530 0
83 -2123 2124 0
-2124 2531 0
84 -2124 2125 0
-2125 2532 0
85 -2125 2126 0
-2126 2533 0
86 -2126 2127 0
-2127 2534 0
87 -2127 2128 0
-2128 2535 0
88 -2128 2129 0
-2129 2536 0
89 -2129 2130 0
-2130 2537 0
90 -2130 2131 0
-2131 2538 0
91 -2131 2132 0
-2132 2539 0
92 -2132 2133 0
-2133 2540 0
93 -2133 2134 0
-2134 2541 0
94 -2134 2135 0
-2135 2542 0
95 -2135 2136 0
-2136 2543 0
96 -2136 2137 0
-2137 2544 0
97 -2137 2138 0
-2138 2545 0
98 -2138 2139 0
-2139 2546 0
99 -2139 2140 0
-2140 2547 0
100 -2140 2141 0
-2141 2548 0
101 -2141 2142 0
-2142 2549 0
102 -2142 2143 0
-2143 2550 0
103 -2143 2144 0
-2144 2551 0
104 -2144 2145 0
-2145 2552 0
105 -2145 2146 0
-2146 2553 0
106 -2146 2147 0
-2147 2554 0
107 -2147 2148 0
-2148 2555 0
108 -2148 2149 0
-2149 2556 0
109 -2149 2150 0
-2150 2557 0
110 -2150 2151 0
-2151 2558 0
111 -2151 2152 0
-2152 2559 0
112 -2152 2153 0
-2153 2560 0
113 -2153 2154 0
-2154 2561 0
114 -2154 2155 0
-2155 2562 0
115 -2155 2156 0
-2156 2563 0
116 -2156 2157 0
-2157 2564 0
117 -2157 2158 0
-2158 2565 0
118 -2158 2159 0
-2159 2566 0
119 -2159 2160 0
-2160 2567 0
120 -2160 2161 0
-2161 2568 0
121 -2161 2162 0
-2162 2569 0
122 -2162 2163 0
-2163 2570 0
123 -2163 2164 0
-2164 2571 0
124 -2164 2165 0
-2165 2572 0
125 -2165 2166 0
-2166 2573 0
126 -2166 2167 0
-2167 2574 0
127 -2167 2168 0
-2168 2575 0
128 -2168 2169 0
-2169 2576 0
129 -2169 2170 0
-2170 2577 0
130 -2170 2171 0
-2171 2578 0
131 -2171 2172 0
-2172 2579 0
132 -2172 2173 0
-2173 2580 0
133 -2173 2174 0
-2174 2581 0
134 -2174 2175 0
-2175 2582 0
135 -2175 2176 0
-2176 2583 0
136 -2176 2177 0
-2177 2584 0
137 -2177 2178 0
-2178 2585 0
138 -2178 2179 0
-2179 2586 0
139 -2179 2180 0
-2180 2587 0
140 -2180 2181 0
-2181 2588 0
141 -2181 2182 0
-2182 2589 0
142 -2182 2183 0
-2183 2590 0
143 -2183 2184 0
-2184 2591 0
144 -2184 2185 0
-2185 2592 0
145 -2185 2186 0
-2186 2593 0
146 -2186 2187 0
-2187 2594 0
147 -2187 2188 0
-2188 2595 0
148 -2188 2189 0
-2189 2596 0
149 -2189 2190 0
-2190 2597 0
150 -2190 2191 0
-2191 2598 0
151 -2191 2192 0
-2192 2599 0
152 -2192 2193 0
-2193 2600 0
153 -2193 2194 0
-2194 2601 0
154 -2194 2195 0
-2195 2602 0
155 -2195 2196 0
-2196 2603 0
156 -2196 2197 0
-2197 2604 0
157 -2197 2198 0
-2198 2605 0
158 -2198 2199 0
-2199 2606 0
159 -2199 2200 0
-2200 2607 0
160 -2200 2201 0
-2201 2608 0
161 -2201 2202 0
-2202 2609 0
162 -2202 2203 0
-2203 2610 0
163 -2203 2204 0
-2204 2611 0
164 -2204 2205 0
-2205 2612 0
165 -2205 2206 0
-2206 2613 0
166 -2206 2207 0
-2207 2614 0
167 -2207 2208 0
-2208 2615 0
168 -2208 2209 0
-2209 2616 0
169 -2209 2210 0
-2210 2617 0
170 -2210 2211 0
-2211 2618 0
171 -2211 2212 0
-2212 2619 0
172 -2212 2213 0
-2213 2620 0
173 -2213 2214 0
-2214 2621 0
174 -2214 2215 0
-2215 2622 0
175 -2215 2216 0
-2216 2623 0
176 -2216 2217 0
-2217 2624 0
177 -2217 2218 0
-2218 2625 0
178 -2218 2219 0
-2219 2626 0
179 -2219 2220 0
-2220 2627 0
180 -2220 2221 0
-2221 2628 0
181 -2221 2222 0
-2222 2629 0
182 -2222 2223 0
-2223 2630 0
183 -2223 2224 0
-2224 2631 0
184 -2224 2225 0
-2225 2632 0
185 -2225 2226 0
-2226 2633 0
186 -2226 2227 0
-2227 2634 0
187 -2227 2228 0
-2228 2635 0
188 -2228 2229 0
-2229 2636 0
189 -2229 2230 0
-2230 2637 0
190 -2230 2231 0
-2231 2638 0
191 -2231 2232 0
-2232 2639 0
192 -2232 2233 0
-2233 2640 0
193 -2233 2234 0
-2234 2641 0
194 -2234 2235 0
-2235 2642 0
195 -2235 2236 0
-2236 2643 0
196 -2236 2237 0
-2237 2644 0
197 -2237 2238 0
-2238 2645 0
198 -2238 2239 0
-2239 2646 0
199 -2239 2240 0
-2240 2647 0
200 -2240 2241 0
-2241 2648 0
201 -2241 2242 0
-2242 2649 0
202 -2242 2243 0
-2243 2650 0
203 -2243 2244 0
-2244 2651 0
204 -2244 2245 0
-2245 2652 0
205 -2245 2246 0
-2246 2653 0
206 -2246 2247 0
-2247 2654 0
207 -2247 2248 0
-2248 2655 0
208 -2248 2249 0
-2249 2656 0
209 -2249 2250 0
-2250 2657 0
210 -2250 2251 0
-2251 2658 0
211 -2251 2252 0
-2252 2659 0
212 -2252 2253 0
-2253 2660 0
213 -2253 2254 0
-2254 2661 0
214 -2254 2255 0
-2255 2662 0
215 -2255 2256 0
-2256 2663 0
216 -2256 2257 0
-2257 2664 0
217 -2257 2258 0
-2258 2665 0
218 -2258 2259 0
-2259 2666 0
219 -2259 2260 0
-2260 2667 0
220 -2260 2261 0
-2261 2668 0
221 -2261 2262 0
-2262 2669 0
222 -2262 2263 0
-2263 2670 0
223 -2263 2264 0
-2264 2671 0
224 -2264 2265 0
-2265 2672 0
225 -2265 2266 0
-2266 2673 0
226 -2266 2267 0
-2267 2674 0
227 -2267 2268 0
-2268 2675 0
228 -2268 2269 0
-2269 2676 0
229 -2269 2270 0
-2270 2677 0
230 -2270 2271 0
-2271 2678 0
231 -2271 2272 0
-2272 2679 0
232 -2272 2273 0
-2273 2680 0
233 -2273 2274 0
-2274 2681 0
234 -2274 2275 0
-2275 2682 0
235 -2275 2276 0
-2276 2683 0
236 -2276 2277 0
-2277 2684 0
237 -2277 2278 0
-2278 2685 0
238 -2278 2279 0
-2279 2686 0
239 -2279 2280 0
-2280 2687 0
240 -2280 2281 0
-2281 2688 0
241 -2281 2282 0
-2282 2689 0
242 -2282 2283 0
-2283 2690 0
243 -2283 2284 0
-2284 2691 0
244 -2284 2285 0
-2285 2692 0
245 -2285 2286 0
-2286 2693 0
246 -2286 2287 0
-2287 2694 0
247 -2287 2288 0
-2288 2695 0
248 -2288 2289 0
-2289 2696 0
249 -2289 2290 0
-2290 2697 0
250 -2290 2291 0
-2291 2698 0
251 -2291 2292 0
-2292 2699 0
252 -2292 2293 0
-2293 2700 0
253 -2293 2294 0
-2294 2701 0
254 -2294 2295 0
-2295 2702 0
255 -2295 2296 0
-2296 2703 0
256 -2296 2297 0
-2297 2704 0
257 -2297 2298 0
-2298 2705 0
258 -2298 2299 0
-2299 2706 0
259 -2299 2300 0
-2300 2707 0
260 -2300 2301 0
-2301 2708 0
261 -2301 2302 0
-2302 2709 0
262 -2302 2303 0
-2303 2710 0
263 -2303 2304 0
-2304 2711 0
264 -2304 2305 0
-2305 2712 0
265 -2305 2306 0
-2306 2713 0
266 -2306 2307 0
-2307 2714 0
267 -2307 2308 0
-2308 2715 0
268 -2308 2309 0
-2309 2716 0
269 -2309 2310 0
-2310 2717 0
270 -2310 2311 0
-2311 2718 0
271 -2311 2312 0
-2312 2719 0
272 -2312 2313 0
-2313 2720 0
273 -2313 2314 0
-2314 2721 0
274 -2314 2315 0
-2315 2722 0
275 -2315 2316 0
-2316 2723 0
276 -2316 2317 0
-2317 2724 0
277 -2317 2318 0
-2318 2725 0
278 -2318 2319 0
-2319 2726 0
279 -2319 2320 0
-2320 2727 0
280 -2320 2321 0
-2321 2728 0
281 -2321 2322 0
-2322 2729 0
282 -2322 2323 0
-2323 2730 0
283 -2323 2324 0
-2324 2731 0
284 -2324 2325 0
-2325 2732 0
285 -2325 2326 0
-2326 2733 0
286 -2326 2327 0
-2327 2734 0
287 -2327 2328 0
-2328 2735 0
288 -2328 2329 0
-2329 2736 0
289 -2329 2330 0
-2330 2737 0
290 -2330 2331 0
-2331 2738 0
291 -2331 2332 0
-2332 2739 0
292 -2332 2333 0
-2333 2740 0
293 -2333 2334 0
-2334 2741 0
294 -2334 2335 0
-2335 2742 0
295 -2335 2336 0
-2336 2743 0
296 -2336 2337 0
-2337 2744 0
297 -2337 2338 0
-2338 2745 0
298 -2338 2339 0
-2339 2746 0
299 -2339 2340 0
-2340 2747 0
300 -2340 2341 0
-2341 2748 0
301 -2341 2342 0
-2342 2749 0
302 -2342 2343 0
-2343 2750 0
303 -2343 2344 0
-2344 2751 0
304 -2344 2345 0
-2345 2752 0
305 -2345 2346 0
-2346 2753 0
306 -2346 2347 0
-2347 2754 0
307 -2347 2348 0
-2348 2755 0
308 -2348 2349 0
-2349 2756 0
309 -2349 2350 0
-2350 2757 0
310 -2350 2351 0
-2351 2758 0
311 -2351 2352 0
-2352 2759 0
312 -2352 2353 0
-2353 2760 0
313 -2353 2354 0
-2354 2761 0
314 -2354 2355 0
-2355 2762 0
315 -2355 2356 0
-2356 2763 0
316 -2356 2357 0
-2357 2764 0
317 -2357 2358 0
-2358 2765 0
318 -2358 2359 0
-2359 2766 0
319 -2359 2360 0
-2360 2767 0
320 -2360 2361 0
-2361 2768 0
321 -2361 2362 0
-2362 2769 0
322 -2362 2363 0
-2363 2770 0
323 -2363 2364 0
-2364 2771 0
324 -2364 2365 0
-2365 2772 0
325 -2365 2366 0
-2366 2773 0
326 -2366 2367 0
-2367 2774 0
327 -2367 2368 0
-2368 2775 0
328 -2368 2369 0
-2369 2776 0
329 -2369 2370 0
-2370 2777 0
330 -2370 2371 0
-2371 2778 0
331 -2371 2372 0
-2372 2779 0
332 -2372 2373 0
-2373 2780 0
333 -2373 2374 0
-2374 2781 0
334 -2374 2375 0
-2375 2782 0
335 -2375 2376 0
-2376 2783 0
336 -2376 2377 0
-2377 2784 0
337 -2377 2378 0
-2378 2785 0
338 -2378 2379 0
-2379 2786 0
339 -2379 2380 0
-2380 2787 0
340 -2380 2381 0
-2381 2788 0
341 -2381 2382 0
-2382 2789 0
342 -2382 2383 0
-2383 2790 0
343 -2383 2384 0
-2384 2791 0
344 -2384 2385 0
-2385 2792 0
345 -2385 2386 0
-2386 2793 0
346 -2386 2387 0
-2387 2794 0
347 -2387 2388 0
-2388 2795 0
348 -2388 2389 0
-2389 2796 0
349 -2389 2390 0
-2390 2797 0
350 -2390 2391 0
-2391 2798 0
351 -2391 2392 0
-2392 2799 0
352 -2392 2393 0
-2393 2800 0
353 -2393 2394 0
-2394 2801 0
354 -2394 2395 0
-2395 2802 0
355 -2395 2396 0
-2396 2803 0
356 -2396 2397 0
-2397 2804 0
357 -2397 2398 0
-2398 2805 0
358 -2398 2399 0
-2399 2806 0
359 -2399 2400 0
-2400 2807 0
360 -2400 2401 0
-2401 2808 0
361 -2401 2402 0
-2402 2809 0
362 -2402 2403 0
-2403 2810 0
363 -2403 2404 0
-2404 2811 0
364 -2404 2405 0
-2405 2812 0
365 -2405 2406 0
-2406 2813 0
366 -2406 2407 0
-2407 2814 0
367 -2407 2408 0
-2408 2815 0
368 -2408 2409 0
-2409 2816 0
369 -2409 2410 0
-2410 2817 0
370 -2410 2411 0
-2411 2818 0
371 -2411 2412 0
-2412 2819 0
372 -2412 2413 0
-2413 2820 0
373 -2413 2414 0
-2414 2821 0
374 -2414 2415 0
-2415 2822 0
375 -2415 2416 0
-2416 2823 0
376 -2416 2417 0
-2417 2824 0
377 -2417 2418 0
-2418 2825 0
378 -2418 2419 0
-2419 2826 0
379 -2419 2420 0
-2420 2827 0
380 -2420 2421 0
-2421 2828 0
381 -2421 2422 0
-2422 2829 0
382 -2422 2423 0
-2423 2830 0
383 -2423 2424 0
-2424 2831 0
384 -2424 2425 0
-2425 2832 0
385 -2425 2426 0
-2426 2833 0
386 -2426 2427 0
-2427 2834 0
387 -2427 2428 0
-2428 2835 0
388 -2428 2429 0
-2429 2836 0
389 -2429 2430 0
-2430 2837 0
390 -2430 2431 0
-2431 2838 0
391 -2431 2432 0
-2432 2839 0
392 -2432 2433 0
-2433 2840 0
393 -2433 2434 0
-2434 2841 0
394 -2434 2435 0
-2435 2842 0
395 -2435 2436 0
-2436 2843 0
396 -2436 2437 0
-2437 2844 0
397 -2437 2438 0
-2438 2845 0
398 -2438 2439 0
-2439 2846 0
399 -2439 2440 0
-2440 2847 0
400 -2440 2441 0
-2441 2848 0
401 -2441 2442 0
-2442 2849 0
402 -2442 2443 0
-2443 2850 0
403 -2443 2444 0
-2444 2851 0
404 -2444 2445 0
-2445 2852 0
405 -2445 2446 0
-2446 2853 0
406 -2446 2447 0
-2447 2854 0
407 -2447 2448 0
-2448 2855 0
408 -2448 2449 0
-2449 2856 0
409 -2449 2450 0
-2450 2857 0
410 -2450 2451 0
-2451 2858 0
411 -2451 2452 0
-2452 2859 0
412 -2452 0
6 2453 0
-2453 2860 0
7 -2453 2454 0
-2454 2861 0
8 -2454 2455 0
-2455 2862 0
9 -2455 2456 0
-2456 2863 0
10 -2456 2457 0
-2457 2864 0
11 -2457 2458 0
-2458 2865 0
12 -2458 2459 0
-2459 2866 0
13 -2459 2460 0
-2460 2867 0
14 -2460 2461 0
-2461 2868 0
15 -2461 2462 0
-2462 2869 0
16 -2462 2463 0
-2463 2870 0
17 -2463 2464 0
-2464 2871 0
18 -2464 2465 0
-2465 2872 0
19 -2465 2466 0
-2466 2873 0
20 -2466 2467 0
-2467 2874 0
21 -2467 2468 0
-2468 2875 0
22 -2468 2469 0
-2469 2876 0
23 -2469 2470 0
-2470 2877 0
24 -2470 2471 0
-2471 2878 0
25 -2471 2472 0
-2472 2879 0
26 -2472 2473 0
-2473 2880 0
27 -2473 2474 0
-2474 2881 0
28 -2474 2475 0
-2475 2882 0
29 -2475 2476 0
-2476 2883 0
30 -2476 2477 0
-2477 2884 0
31 -2477 2478 0
-2478 2885 0
32 -2478 2479 0
-2479 2886 0
33 -2479 2480 0
-2480 2887 0
34 -2480 2481 0
-2481 2888 0
35 -2481 2482 0
-2482 2889 0
36 -2482 2483 0
-2483 2890 0
37 -2483 2484 0
-2484 2891 0
38 -2484 2485 0
-2485 2892 0
39 -2485 2486 0
-2486 2893 0
40 -2486 2487 0
-2487 2894 0
41 -2487 2488 0
-2488 2895 0
42 -2488 2489 0
-2489 2896 0
43 -2489 2490 0
-2490 2897 0
44 -2490 2491 0
-2491 2898 0
45 -2491 2492 0
-2492 2899 0
46 -2492 2493 0
-2493 2900 0
47 -2493 2494 0
-2494 2901 0
48 -2494 2495 0
-2495 2902 0
49 -2495 2496 0
-2496 2903 0
50 -2496 2497 0
-2497 2904 0
51 -2497 2498 0
-2498 2905 0
52 -2498 2499 0
-2499 2906 0
53 -2499 2500 0
-2500 2907 0
54 -2500 2501 0
-2501 2908 0
55 -2501 2502 0
-2502 2909 0
56 -2502 2503 0
-2503 2910 0
57 -2503 2504 0
-2504 2911 0
58 -2504 2505 0
-2505 2912 0
59 -2505 2506 0
-2506 2913 0
60 -2506 2507 0
-2507 2914 0
61 -2507 2508 0
-2508 2915 0
62 -2508 2509 0
-2509 2916 0
63 -2509 2510 0
-2510 2917 0
64 -2510 2511 0
-2511 2918 0
65 -2511 2512 0
-2512 2919 0
66 -2512 2513 0
-2513 2920 0
67 -2513 2514 0
-2514 2921 0
68 -2514 2515 0
-2515 2922 0
69 -2515 2516 0
-2516 2923 0
70 -2516 2517 0
-2517 2924 0
71 -2517 2518 0
-2518 2925 0
72 -2518 2519 0
-2519 2926 0
73 -2519 2520 0
-2520 2927 0
74 -2520 2521 0
-2521 2928 0
75 -2521 2522 0
-2522 2929 0
76 -2522 2523 0
-2523 2930 0
77 -2523 2524 0
-2524 2931 0
78 -2524 2525 0
-2525 2932 0
79 -2525 2526 0
-2526 2933 0
80 -2526 2527 0
-2527 2934 0
81 -2527 2528 0
-2528 2935 0
82 -2528 2529 0
-2529 2936 0
83 -2529 2530 0
-2530 2937 0
84 -2530 2531 0
-2531 2938 0
85 -2531 2532 0
-2532 2939 0
86 -2532 2533 0
-2533 2940 0
87 -2533 2534 0
-2534 2941 0
88 -2534 2535 0
-2535 2942 0
89 -2535 2536 0
-2536 2943 0
90 -2536 2537 0
-2537 2944 0
91 -2537 2538 0
-2538 2945 0
92 -2538 2539 0
-2539 2946 0
93 -2539 2540 0
-2540 2947 0
94 -2540 2541 0
-2541 2948 0
95 -2541 2542 0
-2542 2949 0
96 -2542 2543 0
-2543 2950 0
97 -2543 2544 0
-2544 2951 0
98 -2544 2545 0
-2545 2952 0
99 -2545 2546 0
-2546 2953 0
100 -2546 2547 0
-2547 2954 0
101 -2547 2548 0
-2548 2955 0
102 -2548 2549 0
-2549 2956 0
103 -2549 2550 0
-2550 2957 0
104 -2550 2551 0
-2551 2958 0
105 -2551 2552 0
-2552 2959 0
106 -2552 2553 0
-2553 2960 0
107 -2553 2554 0
-2554 2961 0
108 -2554 2555 0
-2555 2962 0
109 -2555 2556 0
-2556 2963 0
110 -2556 2557 0
-2557 2964 0
111 -2557 2558 0
-2558 2965 0
112 -2558 2559 0
-2559 2966 0
113 -2559 2560 0
-2560 2967 0
114 -2560 2561 0
-2561 2968 0
115 -2561 2562 0
-2562 2969 0
116 -2562 2563 0
-2563 2970 0
117 -2563 2564 0
-2564 2971 0
118 -2564 2565 0
-2565 2972 0
119 -2565 2566 0
-2566 2973 0
120 -2566 2567 0
-2567 2974 0
121 -2567 2568 0
-2568 2975 0
122 -2568 2569 0
-2569 2976 0
123 -2569 2570 0
-2570 2977 0
124 -2570 2571 0
-2571 2978 0
125 -2571 2572 0
-2572 2979 0
126 -2572 2573 0
-2573 2980 0
127 -2573 2574 0
-2574 2981 0
128 -2574 2575 0
-2575 2982 0
129 -2575 2576 0
-2576 2983 0
130 -2576 2577 0
-2577 2984 0
131 -2577 2578 0
-2578 2985 0
132 -2578 2579 0
-2579 2986 0
133 -2579 2580 0
-2580 2987 0
134 -2580 2581 0
-2581 2988 0
135 -2581 2582 0
-2582 2989 0
136 -2582 2583 0
-2583 2990 0
137 -2583 2584 0
-2584 2991 0
138 -2584 2585 0
-2585 2992 0
139 -2585 2586 0
-2586 2993 0
140 -2586 2587 0
-2587 2994 0
141 -2587 2588 0
-2588 2995 0
142 -2588 2589 0
-2589 2996 0
143 -2589 2590 0
-2590 2997 0
144 -2590 2591 0
-2591 2998 0
145 -2591 2592 0
-2592 2999 0
146 -2592 2593 0
-2593 3000 0
147 -2593 2594 0
-2594 3001 0
148 -2594 2595 0
-2595 3002 0
149 -2595 2596 0
-2596 3003 0
150 -2596 2597 0
-2597 3004 0
151 -2597 2598 0
-2598 3005 0
152 -2598 2599 0
-2599 3006 0
153 -2599 2600 0
-2600 3007 0
154 -2600 2601 0
-2601 3008 0
155 -2601 2602 0
-2602 3009 0
156 -2602 2603 0
-2603 3010 0
157 -2603 2604 0
-2604 3011 0
158 -2604 2605 0
-2605 3012 0
159 -2605 2606 0
-2606 3013 0
160 -2606 2607 0
-2607 3014 0
161 -2607 2608 0
-2608 3015 0
162 -2608 2609 0
-2609 3016 0
163 -2609 2610 0
-2610 3017 0
164 -2610 2611 0
-2611 3018 0
165 -2611 2612 0
-2612 3019 0
166 -2612 2613 0
-2613 3020 0
167 -2613 2614 0
-2614 3021 0
168 -2614 2615 0
-2615 3022 0
169 -2615 2616 0
-2616 3023 0
170 -2616 2617 0
-2617 3024 0
171 -2617 2618 0
-2618 3025 0
172 -2618 2619 0
-2619 3026 0
173 -2619 2620 0
-2620 3027 0
174 -2620 2621 0
-2621 3028 0
175 -2621 2622 0
-2622 3029 0
176 -2622 2623 0
-2623 3030 0
177 -2623 2624 0
-2624 3031 0
178 -2624 2625 0
-2625 3032 0
179 -2625 2626 0
-2626 3033 0
180 -2626 2627 0
-2627 3034 0
181 -2627 2628 0
-2628 3035 0
182 -2628 2629 0
-2629 3036 0
183 -2629 2630 0
-2630 3037 0
184 -2630 2631 0
-2631 3038 0
185 -2631 2632 0
-2632 3039 0
186 -2632 2633 0
-2633 3040 0
187 -2633 2634 0
-2634 3041 0
188 -2634 2635 0
-2635 3042 0
189 -2635 2636 0
-2636 3043 0
190 -2636 2637 0
-2637 3044 0
191 -2637 2638 0
-2638 3045 0
192 -2638 2639 0
-2639 3046 0
193 -2639 2640 0
-2640 3047 0
194 -2640 2641 0
-2641 3048 0
195 -2641 2642 0
-2642 3049 0
196 -2642 2643 0
-2643 3050 0
197 -2643 2644 0
-2644 3051 0
198 -2644 2645 0
-2645 3052 0
199 -2645 2646 0
-2646 3053 0
200 -2646 2647 0
-2647 3054 0
201 -2647 2648 0
-2648 3055 0
202 -2648 2649 0
-2649 3056 0
203 -2649 2650 0
-2650 3057 0
204 -2650 2651 0
-2651 3058 0
205 -2651 2652 0
-2652 3059 0
206 -2652 2653 0
-2653 3060 0
207 -2653 2654 0
-2654 3061 0
208 -2654 2655 0
-2655 3062 0
209 -2655 2656 0
-2656 3063 0
210 -2656 2657 0
-2657 3064 0
211 -2657 2658 0
-2658 3065 0
212 -2658 2659 0
-2659 3066 0
213 -2659 2660 0
-2660 3067 0
214 -2660 2661 0
-2661 3068 0
215 -2661 2662 0
-2662 3069 0
216 -2662 2663 0
-2663 3070 0
217 -2663 2664 0
-2664 3071 0
218 -2664 2665 0
-2665 3072 0
219 -2665 2666 0
-2666 3073 0
220 -2666 2667 0
-2667 3074 0
221 -2667 2668 0
-2668 3075 0
222 -2668 2669 0
-2669 3076 0
223 -2669 2670 0
-2670 3077 0
224 -2670 2671 0
-2671 3078 0
225 -2671 2672 0
-2672 3079 0
226 -2672 2673 0
-2673 3080 0
227 -2673 2674 0
-2674 3081 0
228 -2674 2675 0
-2675 3082 0
229 -2675 2676 0
-2676 3083 0
230 -2676 2677 0
-2677 3084 0
231 -2677 2678 0
-2678 3085 0
232 -2678 2679 0
-2679 3086 0
233 -2679 2680 0
-2680 3087 0
234 -2680 2681 0
-2681 3088 0
235 -2681 2682 0
-2682 3089 0
236 -2682 2683 0
-2683 3090 0
237 -2683 2684 0
-2684 3091 0
238 -2684 2685 0
-2685 3092 0
239 -2685 2686 0
-2686 3093 0
240 -2686 2687 0
-2687 3094 0
241 -2687 2688 0
-2688 3095 0
242 -2688 2689 0
-2689 3096 0
243 -2689 2690 0
-2690 3097 0
244 -2690 2691 0
-2691 3098 0
245 -2691 2692 0
-2692 3099 0
246 -2692 2693 0
-2693 3100 0
247 -2693 2694 0
-2694 3101 0
248 -2694 2695 0
-2695 3102 0
249 -2695 2696 0
-2696 3103 0
250 -2696 2697 0
-2697 3104 0
251 -2697 2698 0
-2698 3105 0
252 -2698 2699 0
-2699 3106 0
253 -2699 2700 0
-2700 3107 0
254 -2700 2701 0
-2701 3108 0
255 -2701 2702 0
-2702 3109 0
256 -2702 2703 0
-2703 3110 0
257 -2703 2704 0
-2704 3111 0
258 -2704 2705 0
-2705 3112 0
259 -2705 2706 0
-2706 3113 0
260 -2706 2707 0
-2707 3114 0
261 -2707 2708 0
-2708 3115 0
262 -2708 2709 0
-2709 3116 0
263 -2709 2710 0
-2710 3117 0
264 -2710 2711 0
-2711 3118 0
265 -2711 2712 0
-2712 3119 0
266 -2712 2713 0
-2713 3120 0
267 -2713 2714 0
-2714 3121 0
268 -2714 2715 0
-2715 3122 0
269 -2715 2716 0
-2716 3123 0
270 -2716 2717 0
-2717 3124 0
271 -2717 2718 0
-2718 3125 0
272 -2718 2719 0
-2719 3126 0
273 -2719 2720 0
-2720 3127 0
274 -2720 2721 0
-2721 3128 0
275 -2721 2722 0
-2722 3129 0
276 -2722 2723 0
-2723 3130 0
277 -2723 2724 0
-2724 3131 0
278 -2724 2725 0
-2725 3132 0
279 -2725 2726 0
-2726 3133 0
280 -2726 2727 0
-2727 3134 0
281 -2727 2728 0
-2728 3135 0
282 -2728 2729 0
-2729 3136 0
283 -2729 2730 0
-2730 3137 0
284 -2730 2731 0
-2731 3138 0
285 -2731 2732 0
-2732 3139 0
286 -2732 2733 0
-2733 3140 0
287 -2733 2734 0
-2734 3141 0
288 -2734 2735 0
-2735 3142 0
289 -2735 2736 0
-2736 3143 0
290 -2736 2737 0
-2737 3144 0
291 -2737 2738 0
-2738 3145 0
292 -2738 2739 0
-2739 3146 0
293 -2739 2740 0
-2740 3147 0
294 -2740 2741 0
-2741 3148 0
295 -2741 2742 0
-2742 3149 0
296 -2742 2743 0
-2743 3150 0
297 -2743 2744 0
-2744 3151 0
298 -2744 2745 0
-2745 3152 0
299 -2745 2746 0
-2746 3153 0
300 -2746 2747 0
-2747 3154 0
301 -2747 2748 0
-2748 3155 0
302 -2748 2749 0
-2749 3156 0
303 -2749 2750 0
-2750 3157 0
304 -2750 2751 0
-2751 3158 0
305 -2751 2752 0
-2752 3159 0
306 -2752 2753 0
-2753 3160 0
307 -2753 2754 0
-2754 3161 0
308 -2754 2755 0
-2755 3162 0
309 -2755 2756 0
-2756 3163 0
310 -2756 2757 0
-2757 3164 0
311 -2757 2758 0
-2758 3165 0
312 -2758 2759 0
-2759 3166 0
313 -2759 2760 0
-2760 3167 0
314 -2760 2761 0
-2761 3168 0
315 -2761 2762 0
-2762 3169 0
316 -2762 2763 0
-2763 3170 0
317 -2763 2764 0
-2764 3171 0
318 -2764 2765 0
-2765 3172 0
319 -2765 2766 0
-2766 3173 0
320 -2766 2767 0
-2767 3174 0
321 -2767 2768 0
-2768 3175 0
322 -2768 2769 0
-2769 3176 0
323 -2769 2770 0
-2770 3177 0
324 -2770 2771 0
-2771 3178 0
325 -2771 2772 0
-2772 3179 0
326 -2772 2773 0
-2773 3180 0
327 -2773 2774 0
-2774 3181 0
328 -2774 2775 0
-2775 3182 0
329 -2775 2776 0
-2776 3183 0
330 -2776 2777 0
-2777 3184 0
331 -2777 2778 0
-2778 3185 0
332 -2778 2779 0
-2779 3186 0
333 -2779 2780 0
-2780 3187 0
334 -2780 2781 0
-2781 3188 0
335 -2781 2782 0
-2782 3189 0
336 -2782 2783 0
-2783 3190 0
337 -2783 2784 0
-2784 3191 0
338 -2784 2785 0
-2785 3192 0
339 -2785 2786 0
-2786 3193 0
340 -2786 2787 0
-2787 3194 0
341 -2787 2788 0
-2788 3195 0
342 -2788 2789 0
-2789 3196 0
343 -2789 2790 0
-2790 3197 0
344 -2790 2791 0
-2791 3198 0
345 -2791 2792 0
-2792 3199 0
346 -2792 2793 0
-2793 3200 0
347 -2793 2794 0
-2794 3201 0
348 -2794 2795 0
-2795 3202 0
349 -2795 2796 0
-2796 3203 0
350 -2796 2797 0
-2797 3204 0
351 -2797 2798 0
-2798 3205 0
352 -2798 2799 0
-2799 3206 0
353 -2799 2800 0
-2800 3207 0
354 -2800 2801 0
-2801 3208 0
355 -2801 2802 0
-2802 3209 0
356 -2802 2803 0
-2803 3210 0
357 -2803 2804 0
-2804 3211 0
358 -2804 2805 0
-2805 3212 0
359 -2805 2806 0
-2806 3213 0
360 -2806 2807 0
-2807 3214 0
361 -2807 2808 0
-2808 3215 0
362 -2808 2809 0
-2809 3216 0
363 -2809 2810 0
-2810 3217 0
364 -2810 2811 0
-2811 3218 0
365 -2811 2812 0
-2812 3219 0
366 -2812 2813 0
-2813 3220 0
367 -2813 2814 0
-2814 3221 0
368 -2814 2815 0
-2815 3222 0
369 -2815 2816 0
-2816 3223 0
370 -2816 2817 0
-2817 3224 0
371 -2817 2818 0
-2818 3225 0
372 -2818 2819 0
-2819 3226 0
373 -2819 2820 0
-2820 3227 0
374 -2820 2821 0
-2821 3228 0
375 -2821 2822 0
-2822 3229 0
376 -2822 2823 0
-2823 3230 0
377 -2823 2824 0
-2824 3231 0
378 -2824 2825 0
-2825 3232 0
379 -2825 2826 0
-2826 3233 0
380 -2826 2827 0
-2827 3234 0
381 -2827 2828 0
-2828 3235 0
382 -2828 2829 0
-2829 3236 0
383 -2829 2830 0
-2830 3237 0
384 -2830 2831 0
-2831 3238 0
385 -2831 2832 0
-2832 3239 0
386 -2832 2833 0
-2833 3240 0
387 -2833 2834 0
-2834 3241 0
388 -2834 2835 0
-2835 3242 0
389 -2835 2836 0
-2836 3243 0
390 -2836 2837 0
-2837 3244 0
391 -2837 2838 0
-2838 3245 0
392 -2838 2839 0
-2839 3246 0
393 -2839 2840 0
-2840 3247 0
394 -2840 2841 0
-2841 3248 0
395 -2841 2842 0
-2842 3249 0
396 -2842 2843 0
-2843 3250 0
397 -2843 2844 0
-2844 3251 0
398 -2844 2845 0
-2845 3252 0
399 -2845 2846 0
-2846 3253 0
400 -2846 2847 0
-2847 3254 0
401 -2847 2848 0
-2848 3255 0
402 -2848 2849 0
-2849 3256 0
403 -2849 2850 0
-2850 3257 0
404 -2850 2851 0
-2851 3258 0
405 -2851 2852 0
-2852 3259 0
406 -2852 2853 0
-2853 3260 0
407 -2853 2854 0
-2854 3261 0
408 -2854 2855 0
-2855 3262 0
409 -2855 2856 0
-2856 3263 0
410 -2856 2857 0
-2857 3264 0
411 -2857 2858 0
-2858 3265 0
412 -2858 2859 0
-2859 3266 0
413 -2859 0
7 2860 0
-2860 3267 0
8 -2860 2861 0
-2861 3268 0
9 -2861 2862 0
-2862 3269 0
10 -2862 2863 0
-2863 3270 0
11 -2863 2864 0
-2864 3271 0
12 -2864 2865 0
-2865 3272 0
13 -2865 2866 0
-2866 3273 0
14 -2866 2867 0
-2867 3274 0
15 -2867 2868 0
-2868 3275 0
16 -2868 2869 0
-2869 3276 0
17 -2869 2870 0
-2870 3277 0
18 -2870 2871 0
-2871 3278 0
19 -2871 2872 0
-2872 3279 0
20 -2872 2873 0
-2873 3280 0
21 -2873 2874 0
-2874 3281 0
22 -2874 2875 0
-2875 3282 0
23 -2875 2876 0
-2876 3283 0
24 -2876 2877 0
-2877 3284 0
25 -2877 2878 0
-2878 3285 0
26 -2878 2879 0
-2879 3286 0
27 -2879 2880 0
-2880 3287 0
28 -2880 2881 0
-2881 3288 0
29 -2881 2882 0
-2882 3289 0
30 -2882 2883 0
-2883 3290 0
31 -2883 2884 0
-2884 3291 0
32 -2884 2885 0
-2885 3292 0
33 -2885 2886 0
-2886 3293 0
34 -2886 2887 0
-2887 3294 0
35 -2887 2888 0
-2888 3295 0
36 -2888 2889 0
-2889 3296 0
37 -2889 2890 0
-2890 3297 0
38 -2890 2891 0
-2891 3298 0
39 -2891 2892 0
-2892 3299 0
40 -2892 2893 0
-2893 3300 0
41 -2893 2894 0
-2894 3301 0
42 -2894 2895 0
-2895 3302 0
43 -2895 2896 0
-2896 3303 0
44 -2896 2897 0
-2897 3304 0
45 -2897 2898 0
-2898 3305 0
46 -2898 2899 0
-2899 3306 0
47 -2899 2900 0
-2900 3307 0
48 -2900 2901 0
-2901 3308 0
49 -2901 2902 0
-2902 3309 0
50 -2902 2903 0
-2903 3310 0
51 -2903 2904 0
-2904 3311 0
52 -2904 2905 0
-2905 3312 0
53 -2905 2906 0
-2906 3313 0
54 -2906 2907 0
-2907 3314 0
55 -2907 2908 0
-2908 3315 0
56 -2908 2909 0
-2909 3316 0
57 -2909 2910 0
-2910 3317 0
58 -2910 2911 0
-2911 3318 0
59 -2911 2912 0
-2912 3319 0
60 -2912 2913 0
-2913 3320 0
61 -2913 2914 0
-2914 3321 0
62 -2914 2915 0
-2915 3322 0
63 -2915 2916 0
-2916 3323 0
64 -2916 2917 0
-2917 3324 0
65 -2917 2918 0
-2918 3325 0
66 -2918 2919 0
-2919 3326 0
67 -2919 2920 0
-2920 3327 0
68 -2920 2921 0
-2921 3328 0
69 -2921 2922 0
-2922 3329 0
70 -2922 2923 0
-2923 3330 0
71 -2923 2924 0
-2924 3331 0
72 -2924 2925 0
-2925 3332 0
73 -2925 2926 0
-2926 3333 0
74 -2926 2927 0
-2927 3334 0
75 -2927 2928 0
-2928 3335 0
76 -2928 2929 0
-2929 3336 0
77 -2929 2930 0
-2930 3337 0
78 -2930 2931 0
-2931 3338 0
79 -2931 2932 0
-2932 3339 0
80 -2932 2933 0
-2933 3340 0
81 -2933 2934 0
-2934 3341 0
82 -2934 2935 0
-2935 3342 0
83 -2935 2936 0
-2936 3343 0
84 -2936 2937 0
-2937 3344 0
85 -2937 2938 0
-2938 3345 0
86 -2938 2939 0
-2939 3346 0
87 -2939 2940 0
-2940 3347 0
88 -2940 2941 0
-2941 3348 0
89 -2941 2942 0
-2942 3349 0
90 -2942 2943 0
-2943 3350 0
91 -2943 2944 0
-2944 3351 0
92 -2944 2945 0
-2945 3352 0
93 -2945 2946 0
-2946 3353 0
94 -2946 2947 0
-2947 3354 0
95 -2947 2948 0
-2948 3355 0
96 -2948 2949 0
-2949 3356 0
97 -2949 2950 0
-2950 3357 0
98 -2950 2951 0
-2951 3358 0
99 -2951 2952 0
-2952 3359 0
100 -2952 2953 0
-2953 3360 0
101 -2953 2954 0
-2954 3361 0
102 -2954 2955 0
-2955 3362 0
103 -2955 2956 0
-2956 3363 0
104 -2956 2957 0
-2957 3364 0
105 -2957 2958 0
-2958 3365 0
106 -2958 2959 0
-2959 3366 0
107 -2959 2960 0
-2960 3367 0
108 -2960 2961 0
-2961 3368 0
109 -2961 2962 0
-2962 3369 0
110 -2962 2963 0
-2963 3370 0
111 -2963 2964 0
-2964 3371 0
112 -2964 2965 0
-2965 3372 0
113 -2965 2966 0
-2966 3373 0
114 -2966 2967 0
-2967 3374 0
115 -2967 2968 0
-2968 3375 0
116 -2968 2969 0
-2969 3376 0
117 -2969 2970 0
-2970 3377 0
118 -2970 2971 0
-2971 3378 0
119 -2971 2972 0
-2972 3379 0
120 -2972 2973 0
-2973 3380 0
121 -2973 2974 0
-2974 3381 0
122 -2974 2975 0
-2975 3382 0
123 -2975 2976 0
-2976 3383 0
124 -2976 2977 0
-2977 3384 0
125 -2977 2978 0
-2978 3385 0
126 -2978 2979 0
-2979 3386 0
127 -2979 2980 0
-2980 3387 0
128 -2980 2981 0
-2981 3388 0
129 -2981 2982 0
-2982 3389 0
130 -2982 2983 0
-2983 3390 0
131 -2983 2984 0
-2984 3391 0
132 -2984 2985 0
-2985 3392 0
133 -2985 2986 0
-2986 3393 0
134 -2986 2987 0
-2987 3394 0
135 -2987 2988 0
-2988 3395 0
136 -2988 2989 0
-2989 3396 0
137 -2989 2990 0
-2990 3397 0
138 -2990 2991 0
-2991 3398 0
139 -2991 2992 0
-2992 3399 0
140 -2992 2993 0
-2993 3400 0
141 -2993 2994 0
-2994 3401 0
142 -2994 2995 0
-2995 3402 0
143 -2995 2996 0
-2996 3403 0
144 -2996 2997 0
-2997 3404 0
145 -2997 2998 0
-2998 3405 0
146 -2998 2999 0
-2999 3406 0
147 -2999 3000 0
-3000 3407 0
148 -3000 3001 0
-3001 3408 0
149 -3001 3002 0
-3002 3409 0
150 -3002 3003 0
-3003 3410 0
151 -3003 3004 0
-3004 3411 0
152 -3004 3005 0
-3005 3412 0
153 -3005 3006 0
-3006 3413 0
154 -3006 3007 0
-3007 3414 0
155 -3007 3008 0
-3008 3415 0
156 -3008 3009 0
-3009 3416 0
157 -3009 3010 0
-3010 3417 0
158 -3010 3011 0
-3011 3418 0
159 -3011 3012 0
-3012 3419 0
160 -3012 3013 0
-3013 3420 0
161 -3013 3014 0
-3014 3421 0
162 -3014 3015 0
-3015 3422 0
163 -3015 3016 0
-3016 3423 0
164 -3016 3017 0
-3017 3424 0
165 -3017 3018 0
-3018 3425 0
166 -3018 3019 0
-3019 3426 0
167 -3019 3020 0
-3020 3427 0
168 -3020 3021 0
-3021 3428 0
169 -3021 3022 0
-3022 3429 0
170 -3022 3023 0
-3023 3430 0
171 -3023 3024 0
-3024 3431 0
172 -3024 3025 0
-3025 3432 0
173 -3025 3026 0
-3026 3433 0
174 -3026 3027 0
-3027 3434 0
175 -3027 3028 0
-3028 3435 0
176 -3028 3029 0
-3029 3436 0
177 -3029 3030 0
-3030 3437 0
178 -3030 3031 0
-3031 3438 0
179 -3031 3032 0
-3032 3439 0
180 -3032 3033 0
-3033 3440 0
181 -3033 3034 0
-3034 3441 0
182 -3034 3035 0
-3035 3442 0
183 -3035 3036 0
-3036 3443 0
184 -3036 3037 0
-3037 3444 0
185 -3037 3038 0
-3038 3445 0
186 -3038 3039 0
-3039 3446 0
187 -3039 3040 0
-3040 3447 0
188 -3040 3041 0
-3041 3448 0
189 -3041 3042 0
-3042 3449 0
190 -3042 3043 0
-3043 3450 0
191 -3043 3044 0
-3044 3451 0
192 -3044 3045 0
-3045 3452 0
193 -3045 3046 0
-3046 3453 0
194 -3046 3047 0
-3047 3454 0
195 -3047 3048 0
-3048 3455 0
196 -3048 3049 0
-3049 3456 0
197 -3049 3050 0
-3050 3457 0
198 -3050 3051 0
-3051 3458 0
199 -3051 3052 0
-3052 3459 0
200 -3052 3053 0
-3053 3460 0
201 -3053 3054 0
-3054 3461 0
202 -3054 3055 0
-3055 3462 0
203 -3055 3056 0
-3056 3463 0
204 -3056 3057 0
-3057 3464 0
205 -3057 3058 0
-3058 3465 0
206 -3058 3059 0
-3059 3466 0
207 -3059 3060 0
-3060 3467 0
208 -3060 3061 0
-3061 3468 0
209 -3061 3062 0
-3062 3469 0
210 -3062 3063 0
-3063 3470 0
211 -3063 3064 0
-3064 3471 0
212 -3064 3065 0
-3065 3472 0
213 -3065 3066 0
-3066 3473 0
214 -3066 3067 0
-3067 3474 0
215 -3067 3068 0
-3068 3475 0
216 -3068 3069 0
-3069 3476 0
217 -3069 3070 0
-3070 3477 0
218 -3070 3071 0
-3071 3478 0
219 -3071 3072 0
-3072 3479 0
220 -3072 3073 0
-3073 3480 0
221 -3073 3074 0
-3074 3481 0
222 -3074 3075 0
-3075 3482 0
223 -3075 3076 0
-3076 3483 0
224 -3076 3077 0
-3077 3484 0
225 -3077 3078 0
-3078 3485 0
226 -3078 3079 0
-3079 3486 0
227 -3079 3080 0
-3080 3487 0
228 -3080 3081 0
-3081 3488 0
229 -3081 3082 0
-3082 3489 0
230 -3082 3083 0
-3083 3490 0
231 -3083 3084 0
-3084 3491 0
232 -3084 3085 0
-3085 3492 0
233 -3085 3086 0
-3086 3493 0
234 -3086 3087 0
-3087 3494 0
235 -3087 3088 0
-3088 3495 0
236 -3088 3089 0
-3089 3496 0
237 -3089 3090 0
-3090 3497 0
238 -3090 3091 0
-3091 3498 0
239 -3091 3092 0
-3092 3499 0
240 -3092 3093 0
-3093 3500 0
241 -3093 3094 0
-3094 3501 0
242 -3094 3095 0
-3095 3502 0
243 -3095 3096 0
-3096 3503 0
244 -3096 3097 0
-3097 3504 0
245 -3097 3098 0
-3098 3505 0
246 -3098 3099 0
-3099 3506 0
247 -3099 3100 0
-3100 3507 0
248 -3100 3101 0
-3101 3508 0
249 -3101 3102 0
-3102 3509 0
250 -3102 3103 0
-3103 3510 0
251 -3103 3104 0
-3104 3511 0
252 -3104 3105 0
-3105 3512 0
253 -3105 3106 0
-3106 3513 0
254 -3106 3107 0
-3107 3514 0
255 -3107 3108 0
-3108 3515 0
256 -3108 3109 0
-3109 3516 0
257 -3109 3110 0
-3110 3517 0
258 -3110 3111 0
-3111 3518 0
259 -3111 3112 0
-3112 3519 0
260 -3112 3113 0
-3113 3520 0
261 -3113 3114 0
-3114 3521 0
262 -3114 3115 0
-3115 3522 0
263 -3115 3116 0
-3116 3523 0
264 -3116 3117 0
-3117 3524 0
265 -3117 3118 0
-3118 3525 0
266 -3118 3119 0
-3119 3526 0
267 -3119 3120 0
-3120 3527 0
268 -3120 3121 0
-3121 3528 0
269 -3121 3122 0
-3122 3529 0
270 -3122 3123 0
-3123 3530 0
271 -3123 3124 0
-3124 3531 0
272 -3124 3125 0
-3125 3532 0
273 -3125 3126 0
-3126 3533 0
274 -3126 3127 0
-3127 3534 0
275 -3127 3128 0
-3128 3535 0
276 -3128 3129 0
-3129 3536 0
277 -3129 3130 0
-3130 3537 0
278 -3130 3131 0
-3131 3538 0
279 -3131 3132 0
-3132 3539 0
280 -3132 3133 0
-3133 3540 0
281 -3133 3134 0
-3134 3541 0
282 -3134 3135 0
-3135 3542 0
283 -3135 3136 0
-3136 3543 0
284 -3136 3137 0
-3137 3544 0
285 -3137 3138 0
-3138 3545 0
286 -3138 3139 0
-3139 3546 0
287 -3139 3140 0
-3140 3547 0
288 -3140 3141 0
-3141 3548 0
289 -3141 3142 0
-3142 3549 0
290 -3142 3143 0
-3143 3550 0
291 -3143 3144 0
-3144 3551 0
292 -3144 3145 0
-3145 3552 0
293 -3145 3146 0
-3146 3553 0
294 -3146 3147 0
-3147 3554 0
295 -3147 3148 0
-3148 3555 0
296 -3148 3149 0
-3149 3556 0
297 -3149 3150 0
-3150 3557 0
298 -3150 3151 0
-3151 3558 0
299 -3151 3152 0
-3152 3559 0
300 -3152 3153 0
-3153 3560 0
301 -3153 3154 0
-3154 3561 0
302 -3154 3155 0
-3155 3562 0
303 -3155 3156 0
-3156 3563 0
304 -3156 3157 0
-3157 3564 0
305 -3157 3158 0
-3158 3565 0
306 -3158 3159 0
-3159 3566 0
307 -3159 3160 0
-3160 3567 0
308 -3160 3161 0
-3161 3568 0
309 -3161 3162 0
-3162 3569 0
310 -3162 3163 0
-3163 3570 0
311 -3163 3164 0
-3164 3571 0
312 -3164 3165 0
-3165 3572 0
313 -3165 3166 0
-3166 3573 0
314 -3166 3167 0
-3167 3574 0
315 -3167 3168 0
-3168 3575 0
316 -3168 3169 0
-3169 3576 0
317 -3169 3170 0
-3170 3577 0
318 -3170 3171 0
-3171 3578 0
319 -3171 3172 0
-3172 3579 0
320 -3172 3173 0
-3173 3580 0
321 -3173 3174 0
-3174 3581 0
322 -3174 3175 0
-3175 3582 0
323 -3175 3176 0
-3176 3583 0
324 -3176 3177 0
-3177 3584 0
325 -3177 3178 0
-3178 3585 0
326 -3178 3179 0
-3179 3586 0
327 -3179 3180 0
-3180 3587 0
328 -3180 3181 0
-3181 3588 0
329 -3181 3182 0
-3182 3589 0
330 -3182 3183 0
-3183 3590 0
331 -3183 3184 0
-3184 3591 0
332 -3184 3185 0
-3185 3592 0
333 -3185 3186 0
-3186 3593 0
334 -3186 3187 0
-3187 3594 0
335 -3187 3188 0
-3188 3595 0
336 -3188 3189 0
-3189 3596 0
337 -3189 3190 0
-3190 3597 0
338 -3190 3191 0
-3191 3598 0
339 -3191 3192 0
-3192 3599 0
340 -3192 3193 0
-3193 3600 0
341 -3193 3194 0
-3194 3601 0
342 -3194 3195 0
-3195 3602 0
343 -3195 3196 0
-3196 3603 0
344 -3196 3197 0
-3197 3604 0
345 -3197 3198 0
-3198 3605 0
346 -3198 3199 0
-3199 3606 0
347 -3199 3200 0
-3200 3607 0
348 -3200 3201 0
-3201 3608 0
349 -3201 3202 0
-3202 3609 0
350 -3202 3203 0
-3203 3610 0
351 -3203 3204 0
-3204 3611 0
352 -3204 3205 0
-3205 3612 0
353 -3205 3206 0
-3206 3613 0
354 -3206 3207 0
-3207 3614 0
355 -3207 3208 0
-3208 3615 0
356 -3208 3209 0
-3209 3616 0
357 -3209 3210 0
-3210 3617 0
358 -3210 3211 0
-3211 3618 0
359 -3211 3212 0
-3212 3619 0
360 -3212 3213 0
-3213 3620 0
361 -3213 3214 0
-3214 3621 0
362 -3214 3215 0
-3215 3622 0
363 -3215 3216 0
-3216 3623 0
364 -3216 3217 0
-3217 3624 0
365 -3217 3218 0
-3218 3625 0
366 -3218 3219 0
-3219 3626 0
367 -3219 3220 0
-3220 3627 0
368 -3220 3221 0
-3221 3628 0
369 -3221 3222 0
-3222 3629 0
370 -3222 3223 0
-3223 3630 0
371 -3223 3224 0
-3224 3631 0
372 -3224 3225 0
-3225 3632 0
373 -3225 3226 0
-3226 3633 0
374 -3226 3227 0
-3227 3634 0
375 -3227 3228 0
-3228 3635 0
376 -3228 3229 0
-3229 3636 0
377 -3229 3230 0
-3230 3637 0
378 -3230 3231 0
-3231 3638 0
379 -3231 3232 0
-3232 3639 0
380 -3232 3233 0
-3233 3640 0
381 -3233 3234 0
-3234 3641 0
382 -3234 3235 0
-3235 3642 0
383 -3235 3236 0
-3236 3643 0
384 -3236 3237 0
-3237 3644 0
385 -3237 3238 0
-3238 3645 0
386 -3238 3239 0
-3239 3646 0
387 -3239 3240 0
-3240 3647 0
388 -3240 3241 0
-3241 3648 0
389 -3241 3242 0
-3242 3649 0
390 -3242 3243 0
-3243 3650 0
391 -3243 3244 0
-3244 3651 0
392 -3244 3245 0
-3245 3652 0
393 -3245 3246 0
-3246 3653 0
394 -3246 3247 0
-3247 3654 0
395 -3247 3248 0
-3248 3655 0
396 -3248 3249 0
-3249 3656 0
397 -3249 3250 0
-3250 3657 0
398 -3250 3251 0
-3251 3658 0
399 -3251 3252 0
-3252 3659 0
400 -3252 3253 0
-3253 3660 0
401 -3253 3254 0
-3254 3661 0
402 -3254 3255 0
-3255 3662 0
403 -3255 3256 0
-3256 3663 0
404 -3256 3257 0
-3257 3664 0
405 -3257 3258 0
-3258 3665 0
406 -3258 3259 0
-3259 3666 0
407 -3259 3260 0
-3260 3667 0
408 -3260 3261 0
-3261 3668 0
409 -3261 3262 0
-3262 3669 0
410 -3262 3263 0
-3263 3670 0
411 -3263 3264 0
-3264 3671 0
412 -3264 3265 0
-3265 3672 0
413 -3265 3266 0
-3266 3673 0
414 -3266 0
8 3267 0
-3267 3674 0
9 -3267 3268 0
-3268 3675 0
10 -3268 3269 0
-3269 3676 0
11 -3269 3270 0
-3270 3677 0
12 -3270 3271 0
-3271 3678 0
13 -3271 3272 0
-3272 3679 0
14 -3272 3273 0
-3273 3680 0
15 -3273 3274 0
-3274 3681 0
16 -3274 3275 0
-3275 3682 0
17 -3275 3276 0
-3276 3683 0
18 -3276 3277 0
-3277 3684 0
19 -3277 3278 0
-3278 3685 0
20 -3278 3279 0
-3279 3686 0
21 -3279 3280 0
-3280 3687 0
22 -3280 3281 0
-3281 3688 0
23 -3281 3282 0
-3282 3689 0
24 -3282 3283 0
-3283 3690 0
25 -3283 3284 0
-3284 3691 0
26 -3284 3285 0
-3285 3692 0
27 -3285 3286 0
-3286 3693 0
28 -3286 3287 0
-3287 3694 0
29 -3287 3288 0
-3288 3695 0
30 -3288 3289 0
-3289 3696 0
31 -3289 3290 0
-3290 3697 0
32 -3290 3291 0
-3291 3698 0
33 -3291 3292 0
-3292 3699 0
34 -3292 3293 0
-3293 3700 0
35 -3293 3294 0
-3294 3701 0
36 -3294 3295 0
-3295 3702 0
37 -3295 3296 0
-3296 3703 0
38 -3296 3297 0
-3297 3704 0
39 -3297 3298 0
-3298 3705 0
40 -3298 3299 0
-3299 3706 0
41 -3299 3300 0
-3300 3707 0
42 -3300 3301 0
-3301 3708 0
43 -3301 3302 0
-3302 3709 0
44 -3302 3303 0
-3303 3710 0
45 -3303 3304 0
-3304 3711 0
46 -3304 3305 0
-3305 3712 0
47 -3305 3306 0
-3306 3713 0
48 -3306 3307 0
-3307 3714 0
49 -3307 3308 0
-3308 3715 0
50 -3308 3309 0
-3309 3716 0
51 -3309 3310 0
-3310 3717 0
52 -3310 3311 0
-3311 3718 0
53 -3311 3312 0
-3312 3719 0
54 -3312 3313 0
-3313 3720 0
55 -3313 3314 0
-3314 3721 0
56 -3314 3315 0
-3315 3722 0
57 -3315 3316 0
-3316 3723 0
58 -3316 3317 0
-3317 3724 0
59 -3317 3318 0
-3318 3725 0
60 -3318 3319 0
-3319 3726 0
61 -3319 3320 0
-3320 3727 0
62 -3320 3321 0
-3321 3728 0
63 -3321 3322 0
-3322 3729 0
64 -3322 3323 0
-3323 3730 0
65 -3323 3324 0
-3324 3731 0
66 -3324 3325 0
-3325 3732 0
67 -3325 3326 0
-3326 3733 0
68 -3326 3327 0
-3327 3734 0
69 -3327 3328 0
-3328 3735 0
70 -3328 3329 0
-3329 3736 0
71 -3329 3330 0
-3330 3737 0
72 -3330 3331 0
-3331 3738 0
73 -3331 3332 0
-3332 3739 0
74 -3332 3333 0
-3333 3740 0
75 -3333 3334 0
-3334 3741 0
76 -3334 3335 0
-3335 3742 0
77 -3335 3336 0
-3336 3743 0
78 -3336 3337 0
-3337 3744 0
79 -3337 3338 0
-3338 3745 0
80 -3338 3339 0
-3339 3746 0
81 -3339 3340 0
-3340 3747 0
82 -3340 3341 0
-3341 3748 0
83 -3341 3342 0
-3342 3749 0
84 -3342 3343 0
-3343 3750 0
85 -3343 3344 0
-3344 3751 0
86 -3344 3345 0
-3345 3752 0
87 -3345 3346 0
-3346 3753 0
88 -3346 3347 0
-3347 3754 0
89 -3347 3348 0
-3348 3755 0
90 -3348 3349 0
-3349 3756 0
91 -3349 3350 0
-3350 3757 0
92 -3350 3351 0
-3351 3758 0
93 -3351 3352 0
-3352 3759 0
94 -3352 3353 0
-3353 3760 0
95 -3353 3354 0
-3354 3761 0
96 -3354 3355 0
-3355 3762 0
97 -3355 3356 0
-3356 3763 0
98 -3356 3357 0
-3357 3764 0
99 -3357 3358 0
-3358 3765 0
100 -3358 3359 0
-3359 3766 0
101 -3359 3360 0
-3360 3767 0
102 -3360 3361 0
-3361 3768 0
103 -3361 3362 0
-3362 3769 0
104 -3362 3363 0
-3363 3770 0
105 -3363 3364 0
-3364 3771 0
106 -3364 3365 0
-3365 3772 0
107 -3365 3366 0
-3366 3773 0
108 -3366 3367 0
-3367 3774 0
109 -3367 3368 0
-3368 3775 0
110 -3368 3369 0
-3369 3776 0
111 -3369 3370 0
-3370 3777 0
112 -3370 3371 0
-3371 3778 0
113 -3371 3372 0
-3372 3779 0
114 -3372 3373 0
-3373 3780 0
115 -3373 3374 0
-3374 3781 0
116 -3374 3375 0
-3375 3782 0
117 -3375 3376 0
-3376 3783 0
118 -3376 3377 0
-3377 3784 0
119 -3377 3378 0
-3378 3785 0
120 -3378 3379 0
-3379 3786 0
121 -3379 3380 0
-3380 3787 0
122 -3380 3381 0
-3381 3788 0
123 -3381 3382 0
-3382 3789 0
124 -3382 3383 0
-3383 3790 0
125 -3383 3384 0
-3384 3791 0
126 -3384 3385 0
-3385 3792 0
127 -3385 3386 0
-3386 3793 0
128 -3386 3387 0
-3387 3794 0
129 -3387 3388 0
-3388 3795 0
130 -3388 3389 0
-3389 3796 0
131 -3389 3390 0
-3390 3797 0
132 -3390 3391 0
-3391 3798 0
133 -3391 3392 0
-3392 3799 0
134 -3392 3393 0
-3393 3800 0
135 -3393 3394 0
-3394 3801 0
136 -3394 3395 0
-3395 3802 0
137 -3395 3396 0
-3396 3803 0
138 -3396 3397 0
-3397 3804 0
139 -3397 3398 0
-3398 3805 0
140 -3398 3399 0
-3399 3806 0
141 -3399 3400 0
-3400 3807 0
142 -3400 3401 0
-3401 3808 0
143 -3401 3402 0
-3402 3809 0
144 -3402 3403 0
-3403 3810 0
145 -3403 3404 0
-3404 3811 0
146 -3404 3405 0
-3405 3812 0
147 -3405 3406 0
-3406 3813 0
148 -3406 3407 0
-3407 3814 0
149 -3407 3408 0
-3408 3815 0
150 -3408 3409 0
-3409 3816 0
151 -3409 3410 0
-3410 3817 0
152 -3410 3411 0
-3411 3818 0
153 -3411 3412 0
-3412 3819 0
154 -3412 3413 0
-3413 3820 0
155 -3413 3414 0
-3414 3821 0
156 -3414 3415 0
-3415 3822 0
157 -3415 3416 0
-3416 3823 0
158 -3416 3417 0
-3417 3824 0
159 -3417 3418 0
-3418 3825 0
160 -3418 3419 0
-3419 3826 0
161 -3419 3420 0
-3420 3827 0
162 -3420 3421 0
-3421 3828 0
163 -3421 3422 0
-3422 3829 0
164 -3422 3423 0
-3423 3830 0
165 -3423 3424 0
-3424 3831 0
166 -3424 3425 0
-3425 3832 0
167 -3425 3426 0
-3426 3833 0
168 -3426 3427 0
-3427 3834 0
169 -3427 3428 0
-3428 3835 0
170 -3428 3429 0
-3429 3836 0
171 -3429 3430 0
-3430 3837 0
172 -3430 3431 0
-3431 3838 0
173 -3431 3432 0
-3432 3839 0
174 -3432 3433 0
-3433 3840 0
175 -3433 3434 0
-3434 3841 0
176 -3434 3435 0
-3435 3842 0
177 -3435 3436 0
-3436 3843 0
178 -3436 3437 0
-3437 3844 0
179 -3437 3438 0
-3438 3845 0
180 -3438 3439 0
-3439 3846 0
181 -3439 3440 0
-3440 3847 0
182 -3440 3441 0
-3441 3848 0
183 -3441 3442 0
-3442 3849 0
184 -3442 3443 0
-3443 3850 0
185 -3443 3444 0
-3444 3851 0
186 -3444 3445 0
-3445 3852 0
187 -3445 3446 0
-3446 3853 0
188 -3446 3447 0
-3447 3854 0
189 -3447 3448 0
-3448 3855 0
190 -3448 3449 0
-3449 3856 0
191 -3449 3450 0
-3450 3857 0
192 -3450 3451 0
-3451 3858 0
193 -3451 3452 0
-3452 3859 0
194 -3452 3453 0
-3453 3860 0
195 -3453 3454 0
-3454 3861 0
196 -3454 3455 0
-3455 3862 0
197 -3455 3456 0
-3456 3863 0
198 -3456 3457 0
-3457 3864 0
199 -3457 3458 0
-3458 3865 0
200 -3458 3459 0
-3459 3866 0
201 -3459 3460 0
-3460 3867 0
202 -3460 3461 0
-3461 3868 0
203 -3461 3462 0
-3462 3869 0
204 -3462 3463 0
-3463 3870 0
205 -3463 3464 0
-3464 3871 0
206 -3464 3465 0
-3465 3872 0
207 -3465 3466 0
-3466 3873 0
208 -3466 3467 0
-3467 3874 0
209 -3467 3468 0
-3468 3875 0
210 -3468 3469 0
-3469 3876 0
211 -3469 3470 0
-3470 3877 0
212 -3470 3471 0
-3471 3878 0
213 -3471 3472 0
-3472 3879 0
214 -3472 3473 0
-3473 3880 0
215 -3473 3474 0
-3474 3881 0
216 -3474 3475 0
-3475 3882 0
217 -3475 3476 0
-3476 3883 0
218 -3476 3477 0
-3477 3884 0
219 -3477 3478 0
-3478 3885 0
220 -3478 3479 0
-3479 3886 0
221 -3479 3480 0
-3480 3887 0
222 -3480 3481 0
-3481 3888 0
223 -3481 3482 0
-3482 3889 0
224 -3482 3483 0
-3483 3890 0
225 -3483 3484 0
-3484 3891 0
226 -3484 3485 0
-3485 3892 0
227 -3485 3486 0
-3486 3893 0
228 -3486 3487 0
-3487 3894 0
229 -3487 3488 0
-3488 3895 0
230 -3488 3489 0
-3489 3896 0
231 -3489 3490 0
-3490 3897 0
232 -3490 3491 0
-3491 3898 0
233 -3491 3492 0
-3492 3899 0
234 -3492 3493 0
-3493 3900 0
235 -3493 3494 0
-3494 3901 0
236 -3494 3495 0
-3495 3902 0
237 -3495 3496 0
-3496 3903 0
238 -3496 3497 0
-3497 3904 0
239 -3497 3498 0
-3498 3905 0
240 -3498 3499 0
-3499 3906 0
241 -3499 3500 0
-3500 3907 0
242 -3500 3501 0
-3501 3908 0
243 -3501 3502 0
-3502 3909 0
244 -3502 3503 0
-3503 3910 0
245 -3503 3504 0
-3504 3911 0
246 -3504 3505 0
-3505 3912 0
247 -3505 3506 0
-3506 3913 0
248 -3506 3507 0
-3507 3914 0
249 -3507 3508 0
-3508 3915 0
250 -3508 3509 0
-3509 3916 0
251 -3509 3510 0
-3510 3917 0
252 -3510 3511 0
-3511 3918 0
253 -3511 3512 0
-3512 3919 0
254 -3512 3513 0
-3513 3920 0
255 -3513 3514 0
-3514 3921 0
256 -3514 3515 0
-3515 3922 0
257 -3515 3516 0
-3516 3923 0
258 -3516 3517 0
-3517 3924 0
259 -3517 3518 0
-3518 3925 0
260 -3518 3519 0
-3519 3926 0
261 -3519 3520 0
-3520 3927 0
262 -3520 3521 0
-3521 3928 0
263 -3521 3522 0
-3522 3929 0
264 -3522 3523 0
-3523 3930 0
265 -3523 3524 0
-3524 3931 0
266 -3524 3525 0
-3525 3932 0
267 -3525 3526 0
-3526 3933 0
268 -3526 3527 0
-3527 3934 0
269 -3527 3528 0
-3528 3935 0
270 -3528 3529 0
-3529 3936 0
271 -3529 3530 0
-3530 3937 0
272 -3530 3531 0
-3531 3938 0
273 -3531 3532 0
-3532 3939 0
274 -3532 3533 0
-3533 3940 0
275 -3533 3534 0
-3534 3941 0
276 -3534 3535 0
-3535 3942 0
277 -3535 3536 0
-3536 3943 0
278 -3536 3537 0
-3537 3944 0
279 -3537 3538 0
-3538 3945 0
280 -3538 3539 0
-3539 3946 0
281 -3539 3540 0
-3540 3947 0
282 -3540 3541 0
-3541 3948 0
283 -3541 3542 0
-3542 3949 0
284 -3542 3543 0
-3543 3950 0
285 -3543 3544 0
-3544 3951 0
286 -3544 3545 0
-3545 3952 0
287 -3545 3546 0
-3546 3953 0
288 -3546 3547 0
-3547 3954 0
289 -3547 3548 0
-3548 3955 0
290 -3548 3549 0
-3549 3956 0
291 -3549 3550 0
-3550 3957 0
292 -3550 3551 0
-3551 3958 0
293 -3551 3552 0
-3552 3959 0
294 -3552 3553 0
-3553 3960 0
295 -3553 3554 0
-3554 3961 0
296 -3554 3555 0
-3555 3962 0
297 -3555 3556 0
-3556 3963 0
298 -3556 3557 0
-3557 3964 0
299 -3557 3558 0
-3558 3965 0
300 -3558 3559 0
-3559 3966 0
301 -3559 3560 0
-3560 3967 0
302 -3560 3561 0
-3561 3968 0
303 -3561 3562 0
-3562 3969 0
304 -3562 3563 0
-3563 3970 0
305 -3563 3564 0
-3564 3971 0
306 -3564 3565 0
-3565 3972 0
307 -3565 3566 0
-3566 3973 0
308 -3566 3567 0
-3567 3974 0
309 -3567 3568 0
-3568 3975 0
310 -3568 3569 0
-3569 3976 0
311 -3569 3570 0
-3570 3977 0
312 -3570 3571 0
-3571 3978 0
313 -3571 3572 0
-3572 3979 0
314 -3572 3573 0
-3573 3980 0
315 -3573 3574 0
-3574 3981 0
316 -3574 3575 0
-3575 3982 0
317 -3575 3576 0
-3576 3983 0
318 -3576 3577 0
-3577 3984 0
319 -3577 3578 0
-3578 3985 0
320 -3578 3579 0
-3579 3986 0
321 -3579 3580 0
-3580 3987 0
322 -3580 3581 0
-3581 3988 0
323 -3581 3582 0
-3582 3989 0
324 -3582 3583 0
-3583 3990 0
325 -3583 3584 0
-3584 3991 0
326 -3584 3585 0
-3585 3992 0
327 -3585 3586 0
-3586 3993 0
328 -3586 3587 0
-3587 3994 0
329 -3587 3588 0
-3588 3995 0
330 -3588 3589 0
-3589 3996 0
331 -3589 3590 0
-3590 3997 0
332 -3590 3591 0
-3591 3998 0
333 -3591 3592 0
-3592 3999 0
334 -3592 3593 0
-3593 4000 0
335 -3593 3594 0
-3594 4001 0
336 -3594 3595 0
-3595 4002 0
337 -3595 3596 0
-3596 4003 0
338 -3596 3597 0
-3597 4004 0
339 -3597 3598 0
-3598 4005 0
340 -3598 3599 0
-3599 4006 0
341 -3599 3600 0
-3600 4007 0
342 -3600 3601 0
-3601 4008 0
343 -3601 3602 0
-3602 4009 0
344 -3602 3603 0
-3603 4010 0
345 -3603 3604 0
-3604 4011 0
346 -3604 3605 0
-3605 4012 0
347 -3605 3606 0
-3606 4013 0
348 -3606 3607 0
-3607 4014 0
349 -3607 3608 0
-3608 4015 0
350 -3608 3609 0
-3609 4016 0
351 -3609 3610 0
-3610 4017 0
352 -3610 3611 0
-3611 4018 0
353 -3611 3612 0
-3612 4019 0
354 -3612 3613 0
-3613 4020 0
355 -3613 3614 0
-3614 4021 0
356 -3614 3615 0
-3615 4022 0
357 -3615 3616 0
-3616 4023 0
358 -3616 3617 0
-3617 4024 0
359 -3617 3618 0
-3618 4025 0
360 -3618 3619 0
-3619 4026 0
361 -3619 3620 0
-3620 4027 0
362 -3620 3621 0
-3621 4028 0
363 -3621 3622 0
-3622 4029 0
364 -3622 3623 0
-3623 4030 0
365 -3623 3624 0
-3624 4031 0
366 -3624 3625 0
-3625 4032 0
367 -3625 3626 0
-3626 4033 0
368 -3626 3627 0
-3627 4034 0
369 -3627 3628 0
-3628 4035 0
370 -3628 3629 0
-3629 4036 0
371 -3629 3630 0
-3630 4037 0
372 -3630 3631 0
-3631 4038 0
373 -3631 3632 0
-3632 4039 0
374 -3632 3633 0
-3633 4040 0
375 -3633 3634 0
-3634 4041 0
376 -3634 3635 0
-3635 4042 0
377 -3635 3636 0
-3636 4043 0
378 -3636 3637 0
-3637 4044 0
379 -3637 3638 0
-3638 4045 0
380 -3638 3639 0
-3639 4046 0
381 -3639 3640 0
-3640 4047 0
382 -3640 3641 0
-3641 4048 0
383 -3641 3642 0
-3642 4049 0
384 -3642 3643 0
-3643 4050 0
385 -3643 3644 0
-3644 4051 0
386 -3644 3645 0
-3645 4052 0
387 -3645 3646 0
-3646 4053 0
388 -3646 3647 0
-3647 4054 0
389 -3647 3648 0
-3648 4055 0
390 -3648 3649 0
-3649 4056 0
391 -3649 3650 0
-3650 4057 0
392 -3650 3651 0
-3651 4058 0
393 -3651 3652 0
-3652 4059 0
394 -3652 3653 0
-3653 4060 0
395 -3653 3654 0
-3654 4061 0
396 -3654 3655 0
-3655 4062 0
397 -3655 3656 0
-3656 4063 0
398 -3656 3657 0
-3657 4064 0
399 -3657 3658 0
-3658 4065 0
400 -3658 3659 0
-3659 4066 0
401 -3659 3660 0
-3660 4067 0
402 -3660 3661 0
-3661 4068 0
403 -3661 3662 0
-3662 4069 0
404 -3662 3663 0
-3663 4070 0
405 -3663 3664 0
-3664 4071 0
406 -3664 3665 0
-3665 4072 0
407 -3665 3666 0
-3666 4073 0
408 -3666 3667 0
-3667 4074 0
409 -3667 3668 0
-3668 4075 0
410 -3668 3669 0
-3669 4076 0
411 -3669 3670 0
-3670 4077 0
412 -3670 3671 0
-3671 4078 0
413 -3671 3672 0
-3672 4079 0
414 -3672 3673 0
-3673 4080 0
415 -3673 0
9 3674 0
-3674 4081 0
10 -3674 3675 0
-3675 4082 0
11 -3675 3676 0
-3676 4083 0
12 -3676 3677 0
-3677 4084 0
13 -3677 3678 0
-3678 4085 0
14 -3678 3679 0
-3679 4086 0
15 -3679 3680 0
-3680 4087 0
16 -3680 3681 0
-3681 4088 0
17 -3681 3682 0
-3682 4089 0
18 -3682 3683 0
-3683 4090 0
19 -3683 3684 0
-3684 4091 0
20 -3684 3685 0
-3685 4092 0
21 -3685 3686 0
-3686 4093 0
22 -3686 3687 0
-3687 4094 0
23 -3687 3688 0
-3688 4095 0
24 -3688 3689 0
-3689 4096 0
25 -3689 3690 0
-3690 4097 0
26 -3690 3691 0
-3691 4098 0
27 -3691 3692 0
-3692 4099 0
28 -3692 3693 0
-3693 4100 0
29 -3693 3694 0
-3694 4101 0
30 -3694 3695 0
-3695 4102 0
31 -3695 3696 0
-3696 4103 0
32 -3696 3697 0
-3697 4104 0
33 -3697 3698 0
-3698 4105 0
34 -3698 3699 0
-3699 4106 0
35 -3699 3700 0
-3700 4107 0
36 -3700 3701 0
-3701 4108 0
37 -3701 3702 0
-3702 4109 0
38 -3702 3703 0
-3703 4110 0
39 -3703 3704 0
-3704 4111 0
40 -3704 3705 0
-3705 4112 0
41 -3705 3706 0
-3706 4113 0
42 -3706 3707 0
-3707 4114 0
43 -3707 3708 0
-3708 4115 0
44 -3708 3709 0
-3709 4116 0
45 -3709 3710 0
-3710 4117 0
46 -3710 3711 0
-3711 4118 0
47 -3711 3712 0
-3712 4119 0
48 -3712 3713 0
-3713 4120 0
49 -3713 3714 0
-3714 4121 0
50 -3714 3715 0
-3715 4122 0
51 -3715 3716 0
-3716 4123 0
52 -3716 3717 0
-3717 4124 0
53 -3717 3718 0
-3718 4125 0
54 -3718 3719 0
-3719 4126 0
55 -3719 3720 0
-3720 4127 0
56 -3720 3721 0
-3721 4128 0
57 -3721 3722 0
-3722 4129 0
58 -3722 3723 0
-3723 4130 0
59 -3723 3724 0
-3724 4131 0
60 -3724 3725 0
-3725 4132 0
61 -3725 3726 0
-3726 4133 0
62 -3726 3727 0
-3727 4134 0
63 -3727 3728 0
-3728 4135 0
64 -3728 3729 0
-3729 4136 0
65 -3729 3730 0
-3730 4137 0
66 -3730 3731 0
-3731 4138 0
67 -3731 3732 0
-3732 4139 0
68 -3732 3733 0
-3733 4140 0
69 -3733 3734 0
-3734 4141 0
70 -3734 3735 0
-3735 4142 0
71 -3735 3736 0
-3736 4143 0
72 -3736 3737 0
-3737 4144 0
73 -3737 3738 0
-3738 4145 0
74 -3738 3739 0
-3739 4146 0
75 -3739 3740 0
-3740 4147 0
76 -3740 3741 0
-3741 4148 0
77 -3741 3742 0
-3742 4149 0
78 -3742 3743 0
-3743 4150 0
79 -3743 3744 0
-3744 4151 0
80 -3744 3745 0
-3745 4152 0
81 -3745 3746 0
-3746 4153 0
82 -3746 3747 0
-3747 4154 0
83 -3747 3748 0
-3748 4155 0
84 -3748 3749 0
-3749 4156 0
85 -3749 3750 0
-3750 4157 0
86 -3750 3751 0
-3751 4158 0
87 -3751 3752 0
-3752 4159 0
88 -3752 3753 0
-3753 4160 0
89 -3753 3754 0
-3754 4161 0
90 -3754 3755 0
-3755 4162 0
91 -3755 3756 0
-3756 4163 0
92 -3756 3757 0
-3757 4164 0
93 -3757 3758 0
-3758 4165 0
94 -3758 3759 0
-3759 4166 0
95 -3759 3760 0
-3760 4167 0
96 -3760 3761 0
-3761 4168 0
97 -3761 3762 0
-3762 4169 0
98 -3762 3763 0
-3763 4170 0
99 -3763 3764 0
-3764 4171 0
100 -3764 3765 0
-3765 4172 0
101 -3765 3766 0
-3766 4173 0
102 -3766 3767 0
-3767 4174 0
103 -3767 3768 0
-3768 4175 0
104 -3768 3769 0
-3769 4176 0
105 -3769 3770 0
-3770 4177 0
106 -3770 3771 0
-3771 4178 0
107 -3771 3772 0
-3772 4179 0
108 -3772 3773 0
-3773 4180 0
109 -3773 3774 0
-3774 4181 0
110 -3774 3775 0
-3775 4182 0
111 -3775 3776 0
-3776 4183 0
112 -3776 3777 0
-3777 4184 0
113 -3777 3778 0
-3778 4185 0
114 -3778 3779 0
-3779 4186 0
115 -3779 3780 0
-3780 4187 0
116 -3780 3781 0
-3781 4188 0
117 -3781 3782 0
-3782 4189 0
118 -3782 3783 0
-3783 4190 0
119 -3783 3784 0
-3784 4191 0
120 -3784 3785 0
-3785 4192 0
121 -3785 3786 0
-3786 4193 0
122 -3786 3787 0
-3787 4194 0
123 -3787 3788 0
-3788 4195 0
124 -3788 3789 0
-3789 4196 0
125 -3789 3790 0
-3790 4197 0
126 -3790 3791 0
-3791 4198 0
127 -3791 3792 0
-3792 4199 0
128 -3792 3793 0
-3793 4200 0
129 -3793 3794 0
-3794 4201 0
130 -3794 3795 0
-3795 4202 0
131 -3795 3796 0
-3796 4203 0
132 -3796 3797 0
-3797 4204 0
133 -3797 3798 0
-3798 4205 0
134 -3798 3799 0
-3799 4206 0
135 -3799 3800 0
-3800 4207 0
136 -3800 3801 0
-3801 4208 0
137 -3801 3802 0
-3802 4209 0
138 -3802 3803 0
-3803 4210 0
139 -3803 3804 0
-3804 4211 0
140 -3804 3805 0
-3805 4212 0
141 -3805 3806 0
-3806 4213 0
142 -3806 3807 0
-3807 4214 0
143 -3807 3808 0
-3808 4215 0
144 -3808 3809 0
-3809 4216 0
145 -3809 3810 0
-3810 4217 0
146 -3810 3811 0
-3811 4218 0
147 -3811 3812 0
-3812 4219 0
148 -3812 3813 0
-3813 4220 0
149 -3813 3814 0
-3814 4221 0
150 -3814 3815 0
-3815 4222 0
151 -3815 3816 0
-3816 4223 0
152 -3816 3817 0
-3817 4224 0
153 -3817 3818 0
-3818 4225 0
154 -3818 3819 0
-3819 4226 0
155 -3819 3820 0
-3820 4227 0
156 -3820 3821 0
-3821 4228 0
157 -3821 3822 0
-3822 4229 0
158 -3822 3823 0
-3823 4230 0
159 -3823 3824 0
-3824 4231 0
160 -3824 3825 0
-3825 4232 0
161 -3825 3826 0
-3826 4233 0
162 -3826 3827 0
-3827 4234 0
163 -3827 3828 0
-3828 4235 0
164 -3828 3829 0
-3829 4236 0
165 -3829 3830 0
-3830 4237 0
166 -3830 3831 0
-3831 4238 0
167 -3831 3832 0
-3832 4239 0
168 -3832 3833 0
-3833 4240 0
169 -3833 3834 0
-3834 4241 0
170 -3834 3835 0
-3835 4242 0
171 -3835 3836 0
-3836 4243 0
172 -3836 3837 0
-3837 4244 0
173 -3837 3838 0
-3838 4245 0
174 -3838 3839 0
-3839 4246 0
175 -3839 3840 0
-3840 4247 0
176 -3840 3841 0
-3841 4248 0
177 -3841 3842 0
-3842 4249 0
178 -3842 3843 0
-3843 4250 0
179 -3843 3844 0
-3844 4251 0
180 -3844 3845 0
-3845 4252 0
181 -3845 3846 0
-3846 4253 0
182 -3846 3847 0
-3847 4254 0
183 -3847 3848 0
-3848 4255 0
184 -3848 3849 0
-3849 4256 0
185 -3849 3850 0
-3850 4257 0
186 -3850 3851 0
-3851 4258 0
187 -3851 3852 0
-3852 4259 0
188 -3852 3853 0
-3853 4260 0
189 -3853 3854 0
-3854 4261 0
190 -3854 3855 0
-3855 4262 0
191 -3855 3856 0
-3856 4263 0
192 -3856 3857 0
-3857 4264 0
193 -3857 3858 0
-3858 4265 0
194 -3858 3859 0
-3859 4266 0
195 -3859 3860 0
-3860 4267 0
196 -3860 3861 0
-3861 4268 0
197 -3861 3862 0
-3862 4269 0
198 -3862 3863 0
-3863 4270 0
199 -3863 3864 0
-3864 4271 0
200 -3864 3865 0
-3865 4272 0
201 -3865 3866 0
-3866 4273 0
202 -3866 3867 0
-3867 4274 0
203 -3867 3868 0
-3868 4275 0
204 -3868 3869 0
-3869 4276 0
205 -3869 3870 0
-3870 4277 0
206 -3870 3871 0
-3871 4278 0
207 -3871 3872 0
-3872 4279 0
208 -3872 3873 0
-3873 4280 0
209 -3873 3874 0
-3874 4281 0
210 -3874 3875 0
-3875 4282 0
211 -3875 3876 0
-3876 4283 0
212 -3876 3877 0
-3877 4284 0
213 -3877 3878 0
-3878 4285 0
214 -3878 3879 0
-3879 4286 0
215 -3879 3880 0
-3880 4287 0
216 -3880 3881 0
-3881 4288 0
217 -3881 3882 0
-3882 4289 0
218 -3882 3883 0
-3883 4290 0
219 -3883 3884 0
-3884 4291 0
220 -3884 3885 0
-3885 4292 0
221 -3885 3886 0
-3886 4293 0
222 -3886 3887 0
-3887 4294 0
223 -3887 3888 0
-3888 4295 0
224 -3888 3889 0
-3889 4296 0
225 -3889 3890 0
-3890 4297 0
226 -3890 3891 0
-3891 4298 0
227 -3891 3892 0
-3892 4299 0
228 -3892 3893 0
-3893 4300 0
229 -3893 3894 0
-3894 4301 0
230 -3894 3895 0
-3895 4302 0
231 -3895 3896 0
-3896 4303 0
232 -3896 3897 0
-3897 4304 0
233 -3897 3898 0
-3898 4305 0
234 -3898 3899 0
-3899 4306 0
235 -3899 3900 0
-3900 4307 0
236 -3900 3901 0
-3901 4308 0
237 -3901 3902 0
-3902 4309 0
238 -3902 3903 0
-3903 4310 0
239 -3903 3904 0
-3904 4311 0
240 -3904 3905 0
-3905 4312 0
241 -3905 3906 0
-3906 4313 0
242 -3906 3907 0
-3907 4314 0
243 -3907 3908 0
-3908 4315 0
244 -3908 3909 0
-3909 4316 0
245 -3909 3910 0
-3910 4317 0
246 -3910 3911 0
-3911 4318 0
247 -3911 3912 0
-3912 4319 0
248 -3912 3913 0
-3913 4320 0
249 -3913 3914 0
-3914 4321 0
250 -3914 3915 0
-3915 4322 0
251 -3915 3916 0
-3916 4323 0
252 -3916 3917 0
-3917 4324 0
253 -3917 3918 0
-3918 4325 0
254 -3918 3919 0
-3919 4326 0
255 -3919 3920 0
-3920 4327 0
256 -3920 3921 0
-3921 4328 0
257 -3921 3922 0
-3922 4329 0
258 -3922 3923 0
-3923 4330 0
259 -3923 3924 0
-3924 4331 0
260 -3924 3925 0
-3925 4332 0
261 -3925 3926 0
-3926 4333 0
262 -3926 3927 0
-3927 4334 0
263 -3927 3928 0
-3928 4335 0
264 -3928 3929 0
-3929 4336 0
265 -3929 3930 0
-3930 4337 0
266 -3930 3931 0
-3931 4338 0
267 -3931 3932 0
-3932 4339 0
268 -3932 3933 0
-3933 4340 0
269 -3933 3934 0
-3934 4341 0
270 -3934 3935 0
-3935 4342 0
271 -3935 3936 0
-3936 4343 0
272 -3936 3937 0
-3937 4344 0
273 -3937 3938 0
-3938 4345 0
274 -3938 3939 0
-3939 4346 0
275 -3939 3940 0
-3940 4347 0
276 -3940 3941 0
-3941 4348 0
277 -3941 3942 0
-3942 4349 0
278 -3942 3943 0
-3943 4350 0
279 -3943 3944 0
-3944 4351 0
280 -3944 3945 0
-3945 4352 0
281 -3945 3946 0
-3946 4353 0
282 -3946 3947 0
-3947 4354 0
283 -3947 3948 0
-3948 4355 0
284 -3948 3949 0
-3949 4356 0
285 -3949 3950 0
-3950 4357 0
286 -3950 3951 0
-3951 4358 0
287 -3951 3952 0
-3952 4359 0
288 -3952 3953 0
-3953 4360 0
289 -3953 3954 0
-3954 4361 0
290 -3954 3955 0
-3955 4362 0
291 -3955 3956 0
-3956 4363 0
292 -3956 3957 0
-3957 4364 0
293 -3957 3958 0
-3958 4365 0
294 -3958 3959 0
-3959 4366 0
295 -3959 3960 0
-3960 4367 0
296 -3960 3961 0
-3961 4368 0
297 -3961 3962 0
-3962 4369 0
298 -3962 3963 0
-3963 4370 0
299 -3963 3964 0
-3964 4371 0
300 -3964 3965 0
-3965 4372 0
301 -3965 3966 0
-3966 4373 0
302 -3966 3967 0
-3967 4374 0
303 -3967 3968 0
-3968 4375 0
304 -3968 3969 0
-3969 4376 0
305 -3969 3970 0
-3970 4377 0
306 -3970 3971 0
-3971 4378 0
307 -3971 3972 0
-3972 4379 0
308 -3972 3973 0
-3973 4380 0
309 -3973 3974 0
-3974 4381 0
310 -3974 3975 0
-3975 4382 0
311 -3975 3976 0
-3976 4383 0
312 -3976 3977 0
-3977 4384 0
313 -3977 3978 0
-3978 4385 0
314 -3978 3979 0
-3979 4386 0
315 -3979 3980 0
-3980 4387 0
316 -3980 3981 0
-3981 4388 0
317 -3981 3982 0
-3982 4389 0
318 -3982 3983 0
-3983 4390 0
319 -3983 3984 0
-3984 4391 0
320 -3984 3985 0
-3985 4392 0
321 -3985 3986 0
-3986 4393 0
322 -3986 3987 0
-3987 4394 0
323 -3987 3988 0
-3988 4395 0
324 -3988 3989 0
-3989 4396 0
325 -3989 3990 0
-3990 4397 0
326 -3990 3991 0
-3991 4398 0
327 -3991 3992 0
-3992 4399 0
328 -3992 3993 0
-3993 4400 0
329 -3993 3994 0
-3994 4401 0
330 -3994 3995 0
-3995 4402 0
331 -3995 3996 0
-3996 4403 0
332 -3996 3997 0
-3997 4404 0
333 -3997 3998 0
-3998 4405 0
334 -3998 3999 0
-3999 4406 0
335 -3999 4000 0
-4000 4407 0
336 -4000 4001 0
-4001 4408 0
337 -4001 4002 0
-4002 4409 0
338 -4002 4003 0
-4003 4410 0
339 -4003 4004 0
-4004 4411 0
340 -4004 4005 0
-4005 4412 0
341 -4005 4006 0
-4006 4413 0
342 -4006 4007 0
-4007 4414 0
343 -4007 4008 0
-4008 4415 0
344 -4008 4009 0
-4009 4416 0
345 -4009 4010 0
-4010 4417 0
346 -4010 4011 0
-4011 4418 0
347 -4011 4012 0
-4012 4419 0
348 -4012 4013 0
-4013 4420 0
349 -4013 4014 0
-4014 4421 0
350 -4014 4015 0
-4015 4422 0
351 -4015 4016 0
-4016 4423 0
352 -4016 4017 0
-4017 4424 0
353 -4017 4018 0
-4018 4425 0
354 -4018 4019 0
-4019 4426 0
355 -4019 4020 0
-4020 4427 0
356 -4020 4021 0
-4021 4428 0
357 -4021 4022 0
-4022 4429 0
358 -4022 4023 0
-4023 4430 0
359 -4023 4024 0
-4024 4431 0
360 -4024 4025 0
-4025 4432 0
361 -4025 4026 0
-4026 4433 0
362 -4026 4027 0
-4027 4434 0
363 -4027 4028 0
-4028 4435 0
364 -4028 4029 0
-4029 4436 0
365 -4029 4030 0
-4030 4437 0
366 -4030 4031 0
-4031 4438 0
367 -4031 4032 0
-4032 4439 0
368 -4032 4033 0
-4033 4440 0
369 -4033 4034 0
-4034 4441 0
370 -4034 4035 0
-4035 4442 0
371 -4035 4036 0
-4036 4443 0
372 -4036 4037 0
-4037 4444 0
373 -4037 4038 0
-4038 4445 0
374 -4038 4039 0
-4039 4446 0
375 -4039 4040 0
-4040 4447 0
376 -4040 4041 0
-4041 4448 0
377 -4041 4042 0
-4042 4449 0
378 -4042 4043 0
-4043 4450 0
379 -4043 4044 0
-4044 4451 0
380 -4044 4045 0
-4045 4452 0
381 -4045 4046 0
-4046 4453 0
382 -4046 4047 0
-4047 4454 0
383 -4047 4048 0
-4048 4455 0
384 -4048 4049 0
-4049 4456 0
385 -4049 4050 0
-4050 4457 0
386 -4050 4051 0
-4051 4458 0
387 -4051 4052 0
-4052 4459 0
388 -4052 4053 0
-4053 4460 0
389 -4053 4054 0
-4054 4461 0
390 -4054 4055 0
-4055 4462 0
391 -4055 4056 0
-4056 4463 0
392 -4056 4057 0
-4057 4464 0
393 -4057 4058 0
-4058 4465 0
394 -4058 4059 0
-4059 4466 0
395 -4059 4060 0
-4060 4467 0
396 -4060 4061 0
-4061 4468 0
397 -4061 4062 0
-4062 4469 0
398 -4062 4063 0
-4063 4470 0
399 -4063 4064 0
-4064 4471 0
400 -4064 4065 0
-4065 4472 0
401 -4065 4066 0
-4066 4473 0
402 -4066 4067 0
-4067 4474 0
403 -4067 4068 0
-4068 4475 0
404 -4068 4069 0
-4069 4476 0
405 -4069 4070 0
-4070 4477 0
406 -4070 4071 0
-4071 4478 0
407 -4071 4072 0
-4072 4479 0
408 -4072 4073 0
-4073 4480 0
409 -4073 4074 0
-4074 4481 0
410 -4074 4075 0
-4075 4482 0
411 -4075 4076 0
-4076 4483 0
412 -4076 4077 0
-4077 4484 0
413 -4077 4078 0
-4078 4485 0
414 -4078 4079 0
-4079 4486 0
415 -4079 4080 0
-4080 4487 0
416 -4080 0
10 4081 0
11 -4081 4082 0
12 -4082 4083 0
13 -4083 4084 0
14 -4084 4085 0
15 -4085 4086 0
16 -4086 4087 0
17 -4087 4088 0
18 -4088 4089 0
19 -4089 4090 0
20 -4090 4091 0
21 -4091 4092 0
22 -4092 4093 0
23 -4093 4094 0
24 -4094 4095 0
25 -4095 4096 0
26 -4096 4097 0
27 -4097 4098 0
28 -4098 4099 0
29 -4099 4100 0
30 -4100 4101 0
31 -4101 4102 0
32 -4102 4103 0
33 -4103 4104 0
34 -4104 4105 0
35 -4105 4106 0
36 -4106 4107 0
37 -4107 4108 0
38 -4108 4109 0
39 -4109 4110 0
40 -4110 4111 0
41 -4111 4112 0
42 -4112 4113 0
43 -4113 4114 0
44 -4114 4115 0
45 -4115 4116 0
46 -4116 4117 0
47 -4117 4118 0
48 -4118 4119 0
49 -4119 4120 0
50 -4120 4121 0
51 -4121 4122 0
52 -4122 4123 0
53 -4123 4124 0
54 -4124 4125 0
55 -4125 4126 0
56 -4126 4127 0
57 -4127 4128 0
58 -4128 4129 0
59 -4129 4130 0
60 -4130 4131 0
61 -4131 4132 0
62 -4132 4133 0
63 -4133 4134 0
64 -4134 4135 0
65 -4135 4136 0
66 -4136 4137 0
67 -4137 4138 0
68 -4138 4139 0
69 -4139 4140 0
70 -4140 4141 0
71 -4141 4142 0
72 -4142 4143 0
73 -4143 4144 0
74 -4144 4145 0
75 -4145 4146 0
76 -4146 4147 0
77 -4147 4148 0
78 -4148 4149 0
79 -4149 4150 0
80 -4150 4151 0
81 -4151 4152 0
82 -4152 4153 0
83 -4153 4154 0
84 -4154 4155 0
85 -4155 4156 0
86 -4156 4157 0
87 -4157 4158 0
88 -4158 4159 0
89 -4159 4160 0
90 -4160 4161 0
91 -4161 4162 0
92 -4162 4163 0
93 -4163 4164 0
94 -4164 4165 0
95 -4165 4166 0
96 -4166 4167 0
97 -4167 4168 0
98 -4168 4169 0
99 -4169 4170 0
100 -4170 4171 0
101 -4171 4172 0
102 -4172 4173 0
103 -4173 4174 0
104 -4174 4175 0
105 -4175 4176 0
106 -4176 4177 0
107 -4177 4178 0
108 -4178 4179 0
109 -4179 4180 0
110 -4180 4181 0
111 -4181 4182 0
112 -4182 4183 0
113 -4183 4184 0
114 -4184 4185 0
115 -4185 4186 0
116 -4186 4187 0
117 -4187 4188 0
118 -4188 4189 0
119 -4189 4190 0
120 -4190 4191 0
121 -4191 4192 0
122 -4192 4193 0
123 -4193 4194 0
124 -4194 4195 0
125 -4195 4196 0
126 -4196 4197 0
127 -4197 4198 0
128 -4198 4199 0
129 -4199 4200 0
130 -4200 4201 0
131 -4201 4202 0
132 -4202 4203 0
133 -4203 4204 0
134 -4204 4205 0
135 -4205 4206 0
136 -4206 4207 0
137 -4207 4208 0
138 -4208 4209 0
139 -4209 4210 0
140 -4210 4211 0
141 -4211 4212 0
142 -4212 4213 0
143 -4213 4214 0
144 -4214 4215 0
145 -4215 4216 0
146 -4216 4217 0
147 -4217 4218 0
148 -4218 4219 0
149 -4219 4220 0
150 -4220 4221 0
151 -4221 4222 0
152 -4222 4223 0
153 -4223 4224 0
154 -4224 4225 0
155 -4225 4226 0
156 -4226 4227 0
157 -4227 4228 0
158 -4228 4229 0
159 -4229 4230 0
160 -4230 4231 0
161 -4231 4232 0
162 -4232 4233 0
163 -4233 4234 0
164 -4234 4235 0
165 -4235 4236 0
166 -4236 4237 0
167 -4237 4238 0
168 -4238 4239 0
169 -4239 4240 0
170 -4240 4241 0
171 -4241 4242 0
172 -4242 4243 0
173 -4243 4244 0
174 -4244 4245 0
175 -4245 4246 0
176 -4246 4247 0
177 -4247 4248 0
178 -4248 4249 0
179 -4249 4250 0
180 -4250 4251 0
181 -4251 4252 0
182 -4252 4253 0
183 -4253 4254 0
184 -4254 4255 0
185 -4255 4256 0
186 -4256 4257 0
187 -4257 4258 0
188 -4258 4259 0
189 -4259 4260 0
190 -4260 4261 0
191 -4261 4262 0
192 -4262 4263 0
193 -4263 4264 0
194 -4264 4265 0
195 -4265 4266 0
196 -4266 4267 0
197 -4267 4268 0
198 -4268 4269 0
199 -4269 4270 0
200 -4270 4271 0
201 -4271 4272 0
202 -4272 4273 0
203 -4273 4274 0
204 -4274 4275 0
205 -4275 4276 0
206 -4276 4277 0
207 -4277 4278 0
208 -4278 4279 0
209 -4279 4280 0
210 -4280 4281 0
211 -4281 4282 0
212 -4282 4283 0
213 -4283 4284 0
214 -4284 4285 0
215 -4285 4286 0
216 -4286 4287 0
217 -4287 4288 0
218 -4288 4289 0
219 -4289 4290 0
220 -4290 4291 0
221 -4291 4292 0
222 -4292 4293 0
223 -4293 4294 0
224 -4294 4295 0
225 -4295 4296 0
226 -4296 4297 0
227 -4297 4298 0
228 -4298 4299 0
229 -4299 4300 0
230 -4300 4301 0
231 -4301 4302 0
232 -4302 4303 0
233 -4303 4304 0
234 -4304 4305 0
235 -4305 4306 0
236 -4306 4307 0
237 -4307 4308 0
238 -4308 4309 0
239 -4309 4310 0
240 -4310 4311 0
241 -4311 4312 0
242 -4312 4313 0
243 -4313 4314 0
244 -4314 4315 0
245 -4315 4316 0
246 -4316 4317 0
247 -4317 4318 0
248 -4318 4319 0
249 -4319 4320 0
250 -4320 4321 0
251 -4321 4322 0
252 -4322 4323 0
253 -4323 4324 0
254 -4324 4325 0
255 -4325 4326 0
256 -4326 4327 0
257 -4327 4328 0
258 -4328 4329 0
259 -4329 4330 0
260 -4330 4331 0
261 -4331 4332 0
262 -4332 4333 0
263 -4333 4334 0
264 -4334 4335 0
265 -4335 4336 0
266 -4336 4337 0
267 -4337 4338 0
268 -4338 4339 0
269 -4339 4340 0
270 -4340 4341 0
271 -4341 4342 0
272 -4342 4343 0
273 -4343 4344 0
274 -4344 4345 0
275 -4345 4346 0
276 -4346 4347 0
277 -4347 4348 0
278 -4348 4349 0
279 -4349 4350 0
280 -4350 4351 0
281 -4351 4352 0
282 -4352 4353 0
283 -4353 4354 0
284 -4354 4355 0
285 -4355 4356 0
286 -4356 4357 0
287 -4357 4358 0
288 -4358 4359 0
289 -4359 4360 0
290 -4360 4361 0
291 -4361 4362 0
292 -4362 4363 0
293 -4363 4364 0
294 -4364 4365 0
295 -4365 4366 0
296 -4366 4367 0
297 -4367 4368 0
298 -4368 4369 0
299 -4369 4370 0
300 -4370 4371 0
301 -4371 4372 0
302 -4372 4373 0
303 -4373 4374 0
304 -4374 4375 0
305 -4375 4376 0
306 -4376 4377 0
307 -4377 4378 0
308 -4378 4379 0
309 -4379 4380 0
310 -4380 4381 0
311 -4381 4382 0
312 -4382 4383 0
313 -4383 4384 0
314 -4384 4385 0
315 -4385 4386 0
316 -4386 4387 0
317 -4387 4388 0
318 -4388 4389 0
319 -4389 4390 0
320 -4390 4391 0
321 -4391 4392 0
322 -4392 4393 0
323 -4393 4394 0
324 -4394 4395 0
325 -4395 4396 0
326 -4396 4397 0
327 -4397 4398 0
328 -4398 4399 0
329 -4399 4400 0
330 -4400 4401 0
331 -4401 4402 0
332 -4402 4403 0
333 -4403 4404 0
334 -4404 4405 0
335 -4405 4406 0
336 -4406 4407 0
337 -4407 4408 0
338 -4408 4409 0
339 -4409 4410 0
340 -4410 4411 0
341 -4411 4412 0
342 -4412 4413 0
343 -4413 4414 0
344 -4414 4415 0
345 -4415 4416 0
346 -4416 4417 0
347 -4417 4418 0
348 -4418 4419 0
349 -4419 4420 0
350 -4420 4421 0
351 -4421 4422 0
352 -4422 4423 0
353 -4423 4424 0
354 -4424 4425 0
355 -4425 4426 0
356 -4426 4427 0
357 -4427 4428 0
358 -4428 4429 0
359 -4429 4430 0
360 -4430 4431 0
361 -4431 4432 0
362 -4432 4433 0
363 -4433 4434 0
364 -4434 4435 0
365 -4435 4436 0
366 -4436 4437 0
367 -4437 4438 0
368 -4438 4439 0
369 -4439 4440 0
370 -4440 4441 0
371 -4441 4442 0
372 -4442 4443 0
373 -4443 4444 0
374 -4444 4445 0
375 -4445 4446 0
376 -4446 4447 0
377 -4447 4448 0
378 -4448 4449 0
379 -4449 4450 0
380 -4450 4451 0
381 -4451 4452 0
382 -4452 4453 0
383 -4453 4454 0
384 -4454 4455 0
385 -4455 4456 0
386 -4456 4457 0
387 -4457 4458 0
388 -4458 4459 0
389 -4459 4460 0
390 -4460 4461 0
391 -4461 4462 0
392 -4462 4463 0
393 -4463 4464 0
394 -4464 4465 0
395 -4465 4466 0
396 -4466 4467 0
397 -4467 4468 0
398 -4468 4469 0
399 -4469 4470 0
400 -4470 4471 0
401 -4471 4472 0
402 -4472 4473 0
403 -4473 4474 0
404 -4474 4475 0
405 -4475 4476 0
406 -4476 4477 0
407 -4477 4478 0
408 -4478 4479 0
409 -4479 4480 0
410 -4480 4481 0
411 -4481 4482 0
412 -4482 4483 0
413 -4483 4484 0
414 -4484 4485 0
415 -4485 4486 0
416 -4486 4487 0
417 -4487 0
-1 418 0
-418 419 0
-2 -418 420 0
-420 421 0
-3 -420 422 0
-422 423 0
-4 -422 424 0
-424 425 0
-5 -424 426 0
-426 427 0
-6 -426 428 0
-428 429 0
-7 -428 430 0
-430 431 0
-8 -430 432 0
-432 433 0
-9 -432 434 0
-434 435 0
-10 -434 436 0
-436 437 0
-11 -436 0
-2 419 0
-419 438 0
-3 -419 421 0
-421 439 0
-4 -421 423 0
-423 440 0
-5 -423 425 0
-425 441 0
-6 -425 427 0
-427 442 0
-7 -427 429 0
-429 443 0
-8 -429 431 0
-431 444 0
-9 -431 433 0
-433 445 0
-10 -433 435 0
-435 446 0
-11 -435 437 0
-437 447 0
-12 -437 0
-3 438 0
-438 448 0
-4 -438 439 0
-439 449 0
-5 -439 440 0
-440 450 0
-6 -440 441 0
-441 451 0
-7 -441 442 0
-442 452 0
-8 -442 443 0
-443 453 0
-9 -443 444 0
-444 454 0
-10 -444 445 0
-445 455 0
-11 -445 446 0
-446 456 0
-12 -446 447 0
-447 457 0
-13 -447 0
-4 448 0
-448 458 0
-5 -448 449 0
-449 459 0
-6 -449 450 0
-450 460 0
-7 -450 451 0
-451 461 0
-8 -451 452 0
-452 462 0
-9 -452 453 0
-453 463 0
-10 -453 454 0
-454 464 0
-11 -454 455 0
-455 465 0
-12 -455 456 0
-456 466 0
-13 -456 457 0
-457 467 0
-14 -457 0
-5 458 0
-458 468 0
-6 -458 459 0
-459 469 0
-7 -459 460 0
-460 470 0
-8 -460 461 0
-461 471 0
-9 -461 462 0
-462 472 0
-10 -462 463 0
-463 473 0
-11 -463 464 0
-464 474 0
-12 -464 465 0
-465 475 0
-13 -465 466 0
-466 476 0
-14 -466 467 0
-467 477 0
-15 -467 0
-6 468 0
-468 478 0
-7 -468 469 0
-469 479 0
-8 -469 470 0
-470 480 0
-9 -470 471 0
-471 481 0
-10 -471 472 0
-472 482 0
-11 -472 473 0
-473 483 0
-12 -473 474 0
-474 484 0
-13 -474 475 0
-475 485 0
-14 -475 476 0
-476 486 0
-15 -476 477 0
-477 487 0
-16 -477 0
-7 478 0
-478 488 0
-8 -478 479 0
-479 489 0
-9 -479 480 0
-480 490 0
-10 -480 481 0
-481 491 0
-11 -481 482 0
-482 492 0
-12 -482 483 0
-483 493 0
-13 -483 484 0
-484 494 0
-14 -484 485 0
-485 495 0
-15 -485 486 0
-486 496 0
-16 -486 487 0
-487 497 0
-17 -487 0
-8 488 0
-488 498 0
-9 -488 489 0
-489 499 0
-10 -489 490 0
-490 500 0
-11 -490 491 0
-491 501 0
-12 -491 492 0
-492 502 0
-13 -492 493 0
-493 503 0
-14 -493 494 0
-494 504 0
-15 -494 495 0
-495 505 0
-16 -495 496 0
-496 506 0
-17 -496 497 0
-497 507 0
-18 -497 0
-9 498 0
-498 508 0
-10 -498 499 0
-499 509 0
-11 -499 500 0
-500 510 0
-12 -500 501 0
-501 511 0
-13 -501 502 0
-502 512 0
-14 -502 503 0
-503 513 0
-15 -503 504 0
-504 514 0
-16 -504 505 0
-505 515 0
-17 -505 506 0
-506 516 0
-18 -506 507 0
-507 517 0
-19 -507 0
-10 508 0
-508 518 0
-11 -508 509 0
-509 519 0
-12 -509 510 0
-510 520 0
-13 -510 511 0
-511 521 0
-14 -511 512 0
-512 522 0
-15 -512 513 0
-513 523 0
-16 -513 514 0
-514 524 0
-17 -514 515 0
-515 525 0
-18 -515 516 0
-516 526 0
-19 -516 517 0
-517 527 0
-20 -517 0
-11 518 0
-518 528 0
-12 -518 519 0
-519 529 0
-13 -519 520 0
-520 530 0
-14 -520 521 0
-521 531 0
-15 -521 522 0
-522 532 0
-16 -522 523 0
-523 533 0
-17 -523 524 0
-524 534 0
-18 -524 525 0
-525 535 0
-19 -525 526 0
-526 536 0
-20 -526 527 0
-527 537 0
-21 -527 0
-12 528 0
-528 538 0
-13 -528 529 0
-529 539 0
-14 -529 530 0
-530 540 0
-15 -530 531 0
-531 541 0
-16 -531 532 0
-532 542 0
-17 -532 533 0
-533 543 0
-18 -533 534 0
-534 544 0
-19 -534 535 0
-535 545 0
-20 -535 536 0
-536 546 0
-21 -536 537 0
-537 547 0
-22 -537 0
-13 538 0
-538 548 0
-14 -538 539 0
-539 549 0
-15 -539 540 0
-540 550 0
-16 -540 541 0
-541 551 0
-17 -541 542 0
-542 552 0
-18 -542 543 0
-543 553 0
-19 -543 544 0
-544 554 0
-20 -544 545 0
-545 555 0
-21 -545 546 0
-546 556 0
-22 -546 547 0
-547 557 0
-23 -547 0
-14 548 0
-548 558 0
-15 -548 549 0
-549 559 0
-16 -549 550 0
-550 560 0
-17 -550 551 0
-551 561 0
-18 -551 552 0
-552 562 0
-19 -552 553 0
-553 563 0
-20 -553 554 0
-554 564 0
-21 -554 555 0
-555 565 0
-22 -555 556 0
-556 566 0
-23 -556 557 0
-557 567 0
-24 -557 0
-15 558 0
-558 568 0
-16 -558 559 0
-559 569 0
-17 -559 560 0
-560 570 0
-18 -560 561 0
-561 571 0
-19 -561 562 0
-562 572 0
-20 -562 563 0
-563 573 0
-21 -563 564 0
-564 574 0
-22 -564 565 0
-565 575 0
-23 -565 566 0
-566 576 0
-24 -566 567 0
-567 577 0
-25 -567 0
-16 568 0
-568 578 0
-17 -568 569 0
-569 579 0
-18 -569 570 0
-570 580 0
-19 -570 571 0
-571 581 0
-20 -571 572 0
-572 582 0
-21 -572 573 0
-573 583 0
-22 -573 574 0
-574 584 0
-23 -574 575 0
-575 585 0
-24 -575 576 0
-576 586 0
-25 -576 577 0
-577 587 0
-26 -577 0
-17 578 0
-578 588 0
-18 -578 579 0
-579 589 0
-19 -579 580 0
-580 590 0
-20 -580 581 0
-581 591 0
-21 -581 582 0
-582 592 0
-22 -582 583 0
-583 593 0
-23 -583 584 0
-584 594 0
-24 -584 585 0
-585 595 0
-25 -585 586 0
-586 596 0
-26 -586 587 0
-587 597 0
-27 -587 0
-18 588 0
-588 598 0
-19 -588 589 0
-589 599 0
-20 -589 590 0
-590 600 0
-21 -590 591 0
-591 601 0
-22 -591 592 0
-592 602 0
-23 -592 593 0
-593 603 0
-24 -593 594 0
-594 604 0
-25 -594 595 0
-595 605 0
-26 -595 596 0
-596 606 0
-27 -596 597 0
-597 607 0
-28 -597 0
-19 598 0
-598 608 0
-20 -598 599 0
-599 609 0
-21 -599 600 0
-600 610 0
-22 -600 601 0
-601 611 0
-23 -601 602 0
-602 612 0
-24 -602 603 0
-603 613 0
-25 -603 604 0
-604 614 0
-26 -604 605 0
-605 615 0
-27 -605 606 0
-606 616 0
-28 -606 607 0
-607 617 0
-29 -607 0
-20 608 0
-608 618 0
-21 -608 609 0
-609 619 0
-22 -609 610 0
-610 620 0
-23 -610 611 0
-611 621 0
-24 -611 612 0
-612 622 0
-25 -612 613 0
-613 623 0
-26 -613 614 0
-614 624 0
-27 -614 615 0
-615 625 0
-28 -615 616 0
-616 626 0
-29 -616 617 0
-617 627 0
-30 -617 0
-21 618 0
-618 628 0
-22 -618 619 0
-619 629 0
-23 -619 620 0
-620 630 0
-24 -620 621 0
-621 631 0
-25 -621 622 0
-622 632 0
-26 -622 623 0
-623 633 0
-27 -623 624 0
-624 634 0
-28 -624 625 0
-625 635 0
-29 -625 626 0
-626 636 0
-30 -626 627 0
-627 637 0
-31 -627 0
-22 628 0
-628 638 0
-23 -628 629 0
-629 639 0
-24 -629 630 0
-630 640 0
-25 -630 631 0
-631 641 0
-26 -631 632 0
-632 642 0
-27 -632 633 0
-633 643 0
-28 -633 634 0
-634 644 0
-29 -634 635 0
-635 645 0
-30 -635 636 0
-636 646 0
-31 -636 637 0
-637 647 0
-32 -637 0
-23 638 0
-638 648 0
-24 -638 639 0
-639 649 0
-25 -639 640 0
-640 650 0
-26 -640 641 0
-641 651 0
-27 -641 642 0
-642 652 0
-28 -642 643 0
-643 653 0
-29 -643 644 0
-644 654 0
-30 -644 645 0
-645 655 0
-31 -645 646 0
-646 656 0
-32 -646 647 0
-647 657 0
-33 -647 0
-24 648 0
-648 658 0
-25 -648 649 0
-649 659 0
-26 -649 650 0
-650 660 0
-27 -650 651 0
-651 661 0
-28 -651 652 0
-652 662 0
-29 -652 653 0
-653 663 0
-30 -653 654 0
-654 664 0
-31 -654 655 0
-655 665 0
-32 -655 656 0
-656 666 0
-33 -656 657 0
-657 667 0
-34 -657 0
-25 658 0
-658 668 0
-26 -658 659 0
-659 669 0
-27 -659 660 0
-660 670 0
-28 -660 661 0
-661 671 0
-29 -661 662 0
-662 672 0
-30 -662 663 0
-663 673 0
-31 -663 664 0
-664 674 0
-32 -664 665 0
-665 675 0
-33 -665 666 0
-666 676 0
-34 -666 667 0
-667 677 0
-35 -667 0
-26 668 0
-668 678 0
-27 -668 669 0
-669 679 0
-28 -669 670 0
-670 680 0
-29 -670 671 0
-671 681 0
-30 -671 672 0
-672 682 0
-31 -672 673 0
-673 683 0
-32 -673 674 0
-674 684 0
-33 -674 675 0
-675 685 0
-34 -675 676 0
-676 686 0
-35 -676 677 0
-677 687 0
-36 -677 0
-27 678 0
-678 688 0
-28 -678 679 0
-679 689 0
-29 -679 680 0
-680 690 0
-30 -680 681 0
-681 691 0
-31 -681 682 0
-682 692 0
-32 -682 683 0
-683 693 0
-33 -683 684 0
-684 694 0
-34 -684 685 0
-685 695 0
-35 -685 686 0
-686 696 0
-36 -686 687 0
-687 697 0
-37 -687 0
-28 688 0
-688 698 0
-29 -688 689 0
-689 699 0
-30 -689 690 0
-690 700 0
-31 -690 691 0
-691 701 0
-32 -691 692 0
-692 702 0
-33 -692 693 0
-693 703 0
-34 -693 694 0
-694 704 0
-35 -694 695 0
-695 705 0
-36 -695 696 0
-696 706 0
-37 -696 697 0
-697 707 0
-38 -697 0
-29 698 0
-698 708 0
-30 -698 699 0
-699 709 0
-31 -699 700 0
-700 710 0
-32 -700 701 0
-701 711 0
-33 -701 702 0
-702 712 0
-34 -702 703 0
-703 713 0
-35 -703 704 0
-704 714 0
-36 -704 705 0
-705 715 0
-37 -705 706 0
-706 716 0
-38 -706 707 0
-707 717 0
-39 -707 0
-30 708 0
-708 718 0
-31 -708 709 0
-709 719 0
-32 -709 710 0
-710 720 0
-33 -710 711 0
-711 721 0
-34 -711 712 0
-712 722 0
-35 -712 713 0
-713 723 0
-36 -713 714 0
-714 724 0
-37 -714 715 0
-715 725 0
-38 -715 716 0
-716 726 0
-39 -716 717 0
-717 727 0
-40 -717 0
-31 718 0
-718 728 0
-32 -718 719 0
-719 729 0
-33 -719 720 0
-720 730 0
-34 -720 721 0
-721 731 0
-35 -721 722 0
-722 732 0
-36 -722 723 0
-723 733 0
-37 -723 724 0
-724 734 0
-38 -724 725 0
-725 735 0
-39 -725 726 0
-726 736 0
-40 -726 727 0
-727 737 0
-41 -727 0
-32 728 0
-728 738 0
-33 -728 729 0
-729 739 0
-34 -729 730 0
-730 740 0
-35 -730 731 0
-731 741 0
-36 -731 732 0
-732 742 0
-37 -732 733 0
-733 743 0
-38 -733 734 0
-734 744 0
-39 -734 735 0
-735 745 0
-40 -735 736 0
-736 746 0
-41 -736 737 0
-737 747 0
-42 -737 0
-33 738 0
-738 748 0
-34 -738 739 0
-739 749 0
-35 -739 740 0
-740 750 0
-36 -740 741 0
-741 751 0
-37 -741 742 0
-742 752 0
-38 -742 743 0
-743 753 0
-39 -743 744 0
-744 754 0
-40 -744 745 0
-745 755 0
-41 -745 746 0
-746 756 0
-42 -746 747 0
-747 757 0
-43 -747 0
-34 748 0
-748 758 0
-35 -748 749 0
-749 759 0
-36 -749 750 0
-750 760 0
-37 -750 751 0
-751 761 0
-38 -751 752 0
-752 762 0
-39 -752 753 0
-753 763 0
-40 -753 754 0
-754 764 0
-41 -754 755 0
-755 765 0
-42 -755 756 0
-756 766 0
-43 -756 757 0
-757 767 0
-44 -757 0
-35 758 0
-758 768 0
-36 -758 759 0
-759 769 0
-37 -759 760 0
-760 770 0
-38 -760 761 0
-761 771 0
-39 -761 762 0
-762 772 0
-40 -762 763 0
-763 773 0
-41 -763 764 0
-764 774 0
-42 -764 765 0
-765 775 0
-43 -765 766 0
-766 776 0
-44 -766 767 0
-767 777 0
-45 -767 0
-36 768 0
-768 778 0
-37 -768 769 0
-769 779 0
-38 -769 770 0
-770 780 0
-39 -770 771 0
-771 781 0
-40 -771 772 0
-772 782 0
-41 -772 773 0
-773 783 0
-42 -773 774 0
-774 784 0
-43 -774 775 0
-775 785 0
-44 -775 776 0
-776 786 0
-45 -776 777 0
-777 787 0
-46 -777 0
-37 778 0
-778 788 0
-38 -778 779 0
-779 789 0
-39 -779 780 0
-780 790 0
-40 -780 781 0
-781 791 0
-41 -781 782 0
-782 792 0
-42 -782 783 0
-783 793 0
-43 -783 784 0
-784 794 0
-44 -784 785 0
-785 795 0
-45 -785 786 0
-786 796 0
-46 -786 787 0
-787 797 0
-47 -787 0
-38 788 0
-788 798 0
-39 -788 789 0
-789 799 0
-40 -789 790 0
-790 800 0
-41 -790 791 0
-791 801 0
-42 -791 792 0
-792 802 0
-43 -792 793 0
-793 803 0
-44 -793 794 0
-794 804 0
-45 -794 795 0
-795 805 0
-46 -795 796 0
-796 806 0
-47 -796 797 0
-797 807 0
-48 -797 0
-39 798 0
-798 808 0
-40 -798 799 0
-799 809 0
-41 -799 800 0
-800 810 0
-42 -800 801 0
-801 811 0
-43 -801 802 0
-802 812 0
-44 -802 803 0
-803 813 0
-45 -803 804 0
-804 814 0
-46 -804 805 0
-805 815 0
-47 -805 806 0
-806 816 0
-48 -806 807 0
-807 817 0
-49 -807 0
-40 808 0
-808 818 0
-41 -808 809 0
-809 819 0
-42 -809 810 0
-810 820 0
-43 -810 811 0
-811 821 0
-44 -811 812 0
-812 822 0
-45 -812 813 0
-813 823 0
-46 -813 814 0
-814 824 0
-47 -814 815 0
-815 825 0
-48 -815 816 0
-816 826 0
-49 -816 817 0
-817 827 0
-50 -817 0
-41 818 0
-818 828 0
-42 -818 819 0
-819 829 0
-43 -819 820 0
-820 830 0
-44 -820 821 0
-821 831 0
-45 -821 822 0
-822 832 0
-46 -822 823 0
-823 833 0
-47 -823 824 0
-824 834 0
-48 -824 825 0
-825 835 0
-49 -825 826 0
-826 836 0
-50 -826 827 0
-827 837 0
-51 -827 0
-42 828 0
-828 838 0
-43 -828 829 0
-829 839 0
-44 -829 830 0
-830 840 0
-45 -830 831 0
-831 841 0
-46 -831 832 0
-832 842 0
-47 -832 833 0
-833 843 0
-48 -833 834 0
-834 844 0
-49 -834 835 0
-835 845 0
-50 -835 836 0
-836 846 0
-51 -836 837 0
-837 847 0
-52 -837 0
-43 838 0
-838 848 0
-44 -838 839 0
-839 849 0
-45 -839 840 0
-840 850 0
-46 -840 841 0
-841 851 0
-47 -841 842 0
-842 852 0
-48 -842 843 0
-843 853 0
-49 -843 844 0
-844 854 0
-50 -844 845 0
-845 855 0
-51 -845 846 0
-846 856 0
-52 -846 847 0
-847 857 0
-53 -847 0
-44 848 0
-848 858 0
-45 -848 849 0
-849 859 0
-46 -849 850 0
-850 860 0
-47 -850 851 0
-851 861 0
-48 -851 852 0
-852 862 0
-49 -852 853 0
-853 863 0
-50 -853 854 0
-854 864 0
-51 -854 855 0
-855 865 0
-52 -855 856 0
-856 866 0
-53 -856 857 0
-857 867 0
-54 -857 0
-45 858 0
-858 868 0
-46 -858 859 0
-859 869 0
-47 -859 860 0
-860 870 0
-48 -860 861 0
-861 871 0
-49 -861 862 0
-862 872 0
-50 -862 863 0
-863 873 0
-51 -863 864 0
-864 874 0
-52 -864 865 0
-865 875 0
-53 -865 866 0
-866 876 0
-54 -866 867 0
-867 877 0
-55 -867 0
-46 868 0
-868 878 0
-47 -868 869 0
-869 879 0
-48 -869 870 0
-870 880 0
-49 -870 871 0
-871 881 0
-50 -871 872 0
-872 882 0
-51 -872 873 0
-873 883 0
-52 -873 874 0
-874 884 0
-53 -874 875 0
-875 885 0
-54 -875 876 0
-876 886 0
-55 -876 877 0
-877 887 0
-56 -877 0
-47 878 0
-878 888 0
-48 -878 879 0
-879 889 0
-49 -879 880 0
-880 890 0
-50 -880 881 0
-881 891 0
-51 -881 882 0
-882 892 0
-52 -882 883 0
-883 893 0
-53 -883 884 0
-884 894 0
-54 -884 885 0
-885 895 0
-55 -885 886 0
-886 896 0
-56 -886 887 0
-887 897 0
-57 -887 0
-48 888 0
-888 898 0
-49 -888 889 0
-889 899 0
-50 -889 890 0
-890 900 0
-51 -890 891 0
-891 901 0
-52 -891 892 0
-892 902 0
-53 -892 893 0
-893 903 0
-54 -893 894 0
-894 904 0
-55 -894 895 0
-895 905 0
-56 -895 896 0
-896 906 0
-57 -896 897 0
-897 907 0
-58 -897 0
-49 898 0
-898 908 0
-50 -898 899 0
-899 909 0
-51 -899 900 0
-900 910 0
-52 -900 901 0
-901 911 0
-53 -901 902 0
-902 912 0
-54 -902 903 0
-903 913 0
-55 -903 904 0
-904 914 0
-56 -904 905 0
-905 915 0
-57 -905 906 0
-906 916 0
-58 -906 907 0
-907 917 0
-59 -907 0
-50 908 0
-908 918 0
-51 -908 909 0
-909 919 0
-52 -909 910 0
-910 920 0
-53 -910 911 0
-911 921 0
-54 -911 912 0
-912 922 0
-55 -912 913 0
-913 923 0
-56 -913 914 0
-914 924 0
-57 -914 915 0
-915 925 0
-58 -915 916 0
-916 926 0
-59 -916 917 0
-917 927 0
-60 -917 0
-51 918 0
-918 928 0
-52 -918 919 0
-919 929 0
-53 -919 920 0
-920 930 0
-54 -920 921 0
-921 931 0
-55 -921 922 0
-922 932 0
-56 -922 923 0
-923 933 0
-57 -923 924 0
-924 934 0
-58 -924 925 0
-925 935 0
-59 -925 926 0
-926 936 0
-60 -926 927 0
-927 937 0
-61 -927 0
-52 928 0
-928 938 0
-53 -928 929 0
-929 939 0
-54 -929 930 0
-930 940 0
-55 -930 931 0
-931 941 0
-56 -931 932 0
-932 942 0
-57 -932 933 0
-933 943 0
-58 -933 934 0
-934 944 0
-59 -934 935 0
-935 945 0
-60 -935 936 0
-936 946 0
-61 -936 937 0
-937 947 0
-62 -937 0
-53 938 0
-938 948 0
-54 -938 939 0
-939 949 0
-55 -939 940 0
-940 950 0
-56 -940 941 0
-941 951 0
-57 -941 942 0
-942 952 0
-58 -942 943 0
-943 953 0
-59 -943 944 0
-944 954 0
-60 -944 945 0
-945 955 0
-61 -945 946 0
-946 956 0
-62 -946 947 0
-947 957 0
-63 -947 0
-54 948 0
-948 958 0
-55 -948 949 0
-949 959 0
-56 -949 950 0
-950 960 0
-57 -950 951 0
-951 961 0
-58 -951 952 0
-952 962 0
-59 -952 953 0
-953 963 0
-60 -953 954 0
-954 964 0
-61 -954 955 0
-955 965 0
-62 -955 956 0
-956 966 0
-63 -956 957 0
-957 967 0
-64 -957 0
-55 958 0
-958 968 0
-56 -958 959 0
-959 969 0
-57 -959 960 0
-960 970 0
-58 -960 961 0
-961 971 0
-59 -961 962 0
-962 972 0
-60 -962 963 0
-963 973 0
-61 -963 964 0
-964 974 0
-62 -964 965 0
-965 975 0
-63 -965 966 0
-966 976 0
-64 -966 967 0
-967 977 0
-65 -967 0
-56 968 0
-968 978 0
-57 -968 969 0
-969 979 0
-58 -969 970 0
-970 980 0
-59 -970 971 0
-971 981 0
-60 -971 972 0
-972 982 0
-61 -972 973 0
-973 983 0
-62 -973 974 0
-974 984 0
-63 -974 975 0
-975 985 0
-64 -975 976 0
-976 986 0
-65 -976 977 0
-977 987 0
-66 -977 0
-57 978 0
-978 988 0
-58 -978 979 0
-979 989 0
-59 -979 980 0
-980 990 0
-60 -980 981 0
-981 991 0
-61 -981 982 0
-982 992 0
-62 -982 983 0
-983 993 0
-63 -983 984 0
-984 994 0
-64 -984 985 0
-985 995 0
-65 -985 986 0
-986 996 0
-66 -986 987 0
-987 997 0
-67 -987 0
-58 988 0
-988 998 0
-59 -988 989 0
-989 999 0
-60 -989 990 0
-990 1000 0
-61 -990 991 0
-991 1001 0
-62 -991 992 0
-992 1002 0
-63 -992 993 0
-993 1003 0
-64 -993 994 0
-994 1004 0
-65 -994 995 0
-995 1005 0
-66 -995 996 0
-996 1006 0
-67 -996 997 0
-997 1007 0
-68 -997 0
-59 998 0
-998 1008 0
-60 -998 999 0
-999 1009 0
-61 -999 1000 0
-1000 1010 0
-62 -1000 1001 0
-1001 1011 0
-63 -1001 1002 0
-1002 1012 0
-64 -1002 1003 0
-1003 1013 0
-65 -1003 1004 0
-1004 1014 0
-66 -1004 1005 0
-1005 1015 0
-67 -1005 1006 0
-1006 1016 0
-68 -1006 1007 0
-1007 1017 0
-69 -1007 0
-60 1008 0
-1008 1018 0
-61 -1008 1009 0
-1009 1019 0
-62 -1009 1010 0
-1010 1020 0
-63 -1010 1011 0
-1011 1021 0
-64 -1011 1012 0
-1012 1022 0
-65 -1012 1013 0
-1013 1023 0
-66 -1013 1014 0
-1014 1024 0
-67 -1014 1015 0
-1015 1025 0
-68 -1015 1016 0
-1016 1026 0
-69 -1016 1017 0
-1017 1027 0
-70 -1017 0
-61 1018 0
-1018 1028 0
-62 -1018 1019 0
-1019 1029 0
-63 -1019 1020 0
-1020 1030 0
-64 -1020 1021 0
-1021 1031 0
-65 -1021 1022 0
-1022 1032 0
-66 -1022 1023 0
-1023 1033 0
-67 -1023 1024 0
-1024 1034 0
-68 -1024 1025 0
-1025 1035 0
-69 -1025 1026 0
-1026 1036 0
-70 -1026 1027 0
-1027 1037 0
-71 -1027 0
-62 1028 0
-1028 1038 0
-63 -1028 1029 0
-1029 1039 0
-64 -1029 1030 0
-1030 1040 0
-65 -1030 1031 0
-1031 1041 0
-66 -1031 1032 0
-1032 1042 0
-67 -1032 1033 0
-1033 1043 0
-68 -1033 1034 0
-1034 1044 0
-69 -1034 1035 0
-1035 1045 0
-70 -1035 1036 0
-1036 1046 0
-71 -1036 1037 0
-1037 1047 0
-72 -1037 0
-63 1038 0
-1038 1048 0
-64 -1038 1039 0
-1039 1049 0
-65 -1039 1040 0
-1040 1050 0
-66 -1040 1041 0
-1041 1051 0
-67 -1041 1042 0
-1042 1052 0
-68 -1042 1043 0
-1043 1053 0
-69 -1043 1044 0
-1044 1054 0
-70 -1044 1045 0
-1045 1055 0
-71 -1045 1046 0
-1046 1056 0
-72 -1046 1047 0
-1047 1057 0
-73 -1047 0
-64 1048 0
-1048 1058 0
-65 -1048 1049 0
-1049 1059 0
-66 -1049 1050 0
-1050 1060 0
-67 -1050 1051 0
-1051 1061 0
-68 -1051 1052 0
-1052 1062 0
-69 -1052 1053 0
-1053 1063 0
-70 -1053 1054 0
-1054 1064 0
-71 -1054 1055 0
-1055 1065 0
-72 -1055 1056 0
-1056 1066 0
-73 -1056 1057 0
-1057 1067 0
-74 -1057 0
-65 1058 0
-1058 1068 0
-66 -1058 1059 0
-1059 1069 0
-67 -1059 1060 0
-1060 1070 0
-68 -1060 1061 0
-1061 1071 0
-69 -1061 1062 0
-1062 1072 0
-70 -1062 1063 0
-1063 1073 0
-71 -1063 1064 0
-1064 1074 0
-72 -1064 1065 0
-1065 1075 0
-73 -1065 1066 0
-1066 1076 0
-74 -1066 1067 0
-1067 1077 0
-75 -1067 0
-66 1068 0
-1068 1078 0
-67 -1068 1069 0
-1069 1079 0
-68 -1069 1070 0
-1070 1080 0
-69 -1070 1071 0
-1071 1081 0
-70 -1071 1072 0
-1072 1082 0
-71 -1072 1073 0
-1073 1083 0
-72 -1073 1074 0
-1074 1084 0
-73 -1074 1075 0
-1075 1085 0
-74 -1075 1076 0
-1076 1086 0
-75 -1076 1077 0
-1077 1087 0
-76 -1077 0
-67 1078 0
-1078 1088 0
-68 -1078 1079 0
-1079 1089 0
-69 -1079 1080 0
-1080 1090 0
-70 -1080 1081 0
-1081 1091 0
-71 -1081 1082 0
-1082 1092 0
-72 -1082 1083 0
-1083 1093 0
-73 -1083 1084 0
-1084 1094 0
-74 -1084 1085 0
-1085 1095 0
-75 -1085 1086 0
-1086 1096 0
-76 -1086 1087 0
-1087 1097 0
-77 -1087 0
-68 1088 0
-1088 1098 0
-69 -1088 1089 0
-1089 1099 0
-70 -1089 1090 0
-1090 1100 0
-71 -1090 1091 0
-1091 1101 0
-72 -1091 1092 0
-1092 1102 0
-73 -1092 1093 0
-1093 1103 0
-74 -1093 1094 0
-1094 1104 0
-75 -1094 1095 0
-1095 1105 0
-76 -1095 1096 0
-1096 1106 0
-77 -1096 1097 0
-1097 1107 0
-78 -1097 0
-69 1098 0
-1098 1108 0
-70 -1098 1099 0
-1099 1109 0
-71 -1099 1100 0
-1100 1110 0
-72 -1100 1101 0
-1101 1111 0
-73 -1101 1102 0
-1102 1112 0
-74 -1102 1103 0
-1103 1113 0
-75 -1103 1104 0
-1104 1114 0
-76 -1104 1105 0
-1105 1115 0
-77 -1105 1106 0
-1106 1116 0
-78 -1106 1107 0
-1107 1117 0
-79 -1107 0
-70 1108 0
-1108 1118 0
-71 -1108 1109 0
-1109 1119 0
-72 -1109 1110 0
-1110 1120 0
-73 -1110 1111 0
-1111 1121 0
-74 -1111 1112 0
-1112 1122 0
-75 -1112 1113 0
-1113 1123 0
-76 -1113 1114 0
-1114 1124 0
-77 -1114 1115 0
-1115 1125 0
-78 -1115 1116 0
-1116 1126 0
-79 -1116 1117 0
-1117 1127 0
-80 -1117 0
-71 1118 0
-1118 1128 0
-72 -1118 1119 0
-1119 1129 0
-73 -1119 1120 0
-1120 1130 0
-74 -1120 1121 0
-1121 1131 0
-75 -1121 1122 0
-1122 1132 0
-76 -1122 1123 0
-1123 1133 0
-77 -1123 1124 0
-1124 1134 0
-78 -1124 1125 0
-1125 1135 0
-79 -1125 1126 0
-1126 1136 0
-80 -1126 1127 0
-1127 1137 0
-81 -1127 0
-72 1128 0
-1128 1138 0
-73 -1128 1129 0
-1129 1139 0
-74 -1129 1130 0
-1130 1140 0
-75 -1130 1131 0
-1131 1141 0
-76 -1131 1132 0
-1132 1142 0
-77 -1132 1133 0
-1133 1143 0
-78 -1133 1134 0
-1134 1144 0
-79 -1134 1135 0
-1135 1145 0
-80 -1135 1136 0
-1136 1146 0
-81 -1136 1137 0
-1137 1147 0
-82 -1137 0
-73 1138 0
-1138 1148 0
-74 -1138 1139 0
-1139 1149 0
-75 -1139 1140 0
-1140 1150 0
-76 -1140 1141 0
-1141 1151 0
-77 -1141 1142 0
-1142 1152 0
-78 -1142 1143 0
-1143 1153 0
-79 -1143 1144 0
-1144 1154 0
-80 -1144 1145 0
-1145 1155 0
-81 -1145 1146 0
-1146 1156 0
-82 -1146 1147 0
-1147 1157 0
-83 -1147 0
-74 1148 0
-1148 1158 0
-75 -1148 1149 0
-1149 1159 0
-76 -1149 1150 0
-1150 1160 0
-77 -1150 1151 0
-1151 1161 0
-78 -1151 1152 0
-1152 1162 0
-79 -1152 1153 0
-1153 1163 0
-80 -1153 1154 0
-1154 1164 0
-81 -1154 1155 0
-1155 1165 0
-82 -1155 1156 0
-1156 1166 0
-83 -1156 1157 0
-1157 1167 0
-84 -1157 0
-75 1158 0
-1158 1168 0
-76 -1158 1159 0
-1159 1169 0
-77 -1159 1160 0
-1160 1170 0
-78 -1160 1161 0
-1161 1171 0
-79 -1161 1162 0
-1162 1172 0
-80 -1162 1163 0
-1163 1173 0
-81 -1163 1164 0
-1164 1174 0
-82 -1164 1165 0
-1165 1175 0
-83 -1165 1166 0
-1166 1176 0
-84 -1166 1167 0
-1167 1177 0
-85 -1167 0
-76 1168 0
-1168 1178 0
-77 -1168 1169 0
-1169 1179 0
-78 -1169 1170 0
-1170 1180 0
-79 -1170 1171 0
-1171 1181 0
-80 -1171 1172 0
-1172 1182 0
-81 -1172 1173 0
-1173 1183 0
-82 -1173 1174 0
-1174 1184 0
-83 -1174 1175 0
-1175 1185 0
-84 -1175 1176 0
-1176 1186 0
-85 -1176 1177 0
-1177 1187 0
-86 -1177 0
-77 1178 0
-1178 1188 0
-78 -1178 1179 0
-1179 1189 0
-79 -1179 1180 0
-1180 1190 0
-80 -1180 1181 0
-1181 1191 0
-81 -1181 1182 0
-1182 1192 0
-82 -1182 1183 0
-1183 1193 0
-83 -1183 1184 0
-1184 1194 0
-84 -1184 1185 0
-1185 1195 0
-85 -1185 1186 0
-1186 1196 0
-86 -1186 1187 0
-1187 1197 0
-87 -1187 0
-78 1188 0
-1188 1198 0
-79 -1188 1189 0
-1189 1199 0
-80 -1189 1190 0
-1190 1200 0
-81 -1190 1191 0
-1191 1201 0
-82 -1191 1192 0
-1192 1202 0
-83 -1192 1193 0
-1193 1203 0
-84 -1193 1194 0
-1194 1204 0
-85 -1194 1195 0
-1195 1205 0
-86 -1195 1196 0
-1196 1206 0
-87 -1196 1197 0
-1197 1207 0
-88 -1197 0
-79 1198 0
-1198 1208 0
-80 -1198 1199 0
-1199 1209 0
-81 -1199 1200 0
-1200 1210 0
-82 -1200 1201 0
-1201 1211 0
-83 -1201 1202 0
-1202 1212 0
-84 -1202 1203 0
-1203 1213 0
-85 -1203 1204 0
-1204 1214 0
-86 -1204 1205 0
-1205 1215 0
-87 -1205 1206 0
-1206 1216 0
-88 -1206 1207 0
-1207 1217 0
-89 -1207 0
-80 1208 0
-1208 1218 0
-81 -1208 1209 0
-1209 1219 0
-82 -1209 1210 0
-1210 1220 0
-83 -1210 1211 0
-1211 1221 0
-84 -1211 1212 0
-1212 1222 0
-85 -1212 1213 0
-1213 1223 0
-86 -1213 1214 0
-1214 1224 0
-87 -1214 1215 0
-1215 1225 0
-88 -1215 1216 0
-1216 1226 0
-89 -1216 1217 0
-1217 1227 0
-90 -1217 0
-81 1218 0
-1218 1228 0
-82 -1218 1219 0
-1219 1229 0
-83 -1219 1220 0
-1220 1230 0
-84 -1220 1221 0
-1221 1231 0
-85 -1221 1222 0
-1222 1232 0
-86 -1222 1223 0
-1223 1233 0
-87 -1223 1224 0
-1224 1234 0
-88 -1224 1225 0
-1225 1235 0
-89 -1225 1226 0
-1226 1236 0
-90 -1226 1227 0
-1227 1237 0
-91 -1227 0
-82 1228 0
-1228 1238 0
-83 -1228 1229 0
-1229 1239 0
-84 -1229 1230 0
-1230 1240 0
-85 -1230 1231 0
-1231 1241 0
-86 -1231 1232 0
-1232 1242 0
-87 -1232 1233 0
-1233 1243 0
-88 -1233 1234 0
-1234 1244 0
-89 -1234 1235 0
-1235 1245 0
-90 -1235 1236 0
-1236 1246 0
-91 -1236 1237 0
-1237 1247 0
-92 -1237 0
-83 1238 0
-1238 1248 0
-84 -1238 1239 0
-1239 1249 0
-85 -1239 1240 0
-1240 1250 0
-86 -1240 1241 0
-1241 1251 0
-87 -1241 1242 0
-1242 1252 0
-88 -1242 1243 0
-1243 1253 0
-89 -1243 1244 0
-1244 1254 0
-90 -1244 1245 0
-1245 1255 0
-91 -1245 1246 0
-1246 1256 0
-92 -1246 1247 0
-1247 1257 0
-93 -1247 0
-84 1248 0
-1248 1258 0
-85 -1248 1249 0
-1249 1259 0
-86 -1249 1250 0
-1250 1260 0
-87 -1250 1251 0
-1251 1261 0
-88 -1251 1252 0
-1252 1262 0
-89 -1252 1253 0
-1253 1263 0
-90 -1253 1254 0
-1254 1264 0
-91 -1254 1255 0
-1255 1265 0
-92 -1255 1256 0
-1256 1266 0
-93 -1256 1257 0
-1257 1267 0
-94 -1257 0
-85 1258 0
-1258 1268 0
-86 -1258 1259 0
-1259 1269 0
-87 -1259 1260 0
-1260 1270 0
-88 -1260 1261 0
-1261 1271 0
-89 -1261 1262 0
-1262 1272 0
-90 -1262 1263 0
-1263 1273 0
-91 -1263 1264 0
-1264 1274 0
-92 -1264 1265 0
-1265 1275 0
-93 -1265 1266 0
-1266 1276 0
-94 -1266 1267 0
-1267 1277 0
-95 -1267 0
-86 1268 0
-1268 1278 0
-87 -1268 1269 0
-1269 1279 0
-88 -1269 1270 0
-1270 1280 0
-89 -1270 1271 0
-1271 1281 0
-90 -1271 1272 0
-1272 1282 0
-91 -1272 1273 0
-1273 1283 0
-92 -1273 1274 0
-1274 1284 0
-93 -1274 1275 0
-1275 1285 0
-94 -1275 1276 0
-1276 1286 0
-95 -1276 1277 0
-1277 1287 0
-96 -1277 0
-87 1278 0
-1278 1288 0
-88 -1278 1279 0
-1279 1289 0
-89 -1279 1280 0
-1280 1290 0
-90 -1280 1281 0
-1281 1291 0
-91 -1281 1282 0
-1282 1292 0
-92 -1282 1283 0
-1283 1293 0
-93 -1283 1284 0
-1284 1294 0
-94 -1284 1285 0
-1285 1295 0
-95 -1285 1286 0
-1286 1296 0
-96 -1286 1287 0
-1287 1297 0
-97 -1287 0
-88 1288 0
-1288 1298 0
-89 -1288 1289 0
-1289 1299 0
-90 -1289 1290 0
-1290 1300 0
-91 -1290 1291 0
-1291 1301 0
-92 -1291 1292 0
-1292 1302 0
-93 -1292 1293 0
-1293 1303 0
-94 -1293 1294 0
-1294 1304 0
-95 -1294 1295 0
-1295 1305 0
-96 -1295 1296 0
-1296 1306 0
-97 -1296 1297 0
-1297 1307 0
-98 -1297 0
-89 1298 0
-1298 1308 0
-90 -1298 1299 0
-1299 1309 0
-91 -1299 1300 0
-1300 1310 0
-92 -1300 1301 0
-1301 1311 0
-93 -1301 1302 0
-1302 1312 0
-94 -1302 1303 0
-1303 1313 0
-95 -1303 1304 0
-1304 1314 0
-96 -1304 1305 0
-1305 1315 0
-97 -1305 1306 0
-1306 1316 0
-98 -1306 1307 0
-1307 1317 0
-99 -1307 0
-90 1308 0
-1308 1318 0
-91 -1308 1309 0
-1309 1319 0
-92 -1309 1310 0
-1310 1320 0
-93 -1310 1311 0
-1311 1321 0
-94 -1311 1312 0
-1312 1322 0
-95 -1312 1313 0
-1313 1323 0
-96 -1313 1314 0
-1314 1324 0
-97 -1314 1315 0
-1315 1325 0
-98 -1315 1316 0
-1316 1326 0
-99 -1316 1317 0
-1317 1327 0
-100 -1317 0
-91 1318 0
-1318 1328 0
-92 -1318 1319 0
-1319 1329 0
-93 -1319 1320 0
-1320 1330 0
-94 -1320 1321 0
-1321 1331 0
-95 -1321 1322 0
-1322 1332 0
-96 -1322 1323 0
-1323 1333 0
-97 -1323 1324 0
-1324 1334 0
-98 -1324 1325 0
-1325 1335 0
-99 -1325 1326 0
-1326 1336 0
-100 -1326 1327 0
-1327 1337 0
-101 -1327 0
-92 1328 0
-1328 1338 0
-93 -1328 1329 0
-1329 1339 0
-94 -1329 1330 0
-1330 1340 0
-95 -1330 1331 0
-1331 1341 0
-96 -1331 1332 0
-1332 1342 0
-97 -1332 1333 0
-1333 1343 0
-98 -1333 1334 0
-1334 1344 0
-99 -1334 1335 0
-1335 1345 0
-100 -1335 1336 0
-1336 1346 0
-101 -1336 1337 0
-1337 1347 0
-102 -1337 0
-93 1338 0
-1338 1348 0
-94 -1338 1339 0
-1339 1349 0
-95 -1339 1340 0
-1340 1350 0
-96 -1340 1341 0
-1341 1351 0
-97 -1341 1342 0
-1342 1352 0
-98 -1342 1343 0
-1343 1353 0
-99 -1343 1344 0
-1344 1354 0
-100 -1344 1345 0
-1345 1355 0
-101 -1345 1346 0
-1346 1356 0
-102 -1346 1347 0
-1347 1357 0
-103 -1347 0
-94 1348 0
-1348 1358 0
-95 -1348 1349 0
-1349 1359 0
-96 -1349 1350 0
-1350 1360 0
-97 -1350 1351 0
-1351 1361 0
-98 -1351 1352 0
-1352 1362 0
-99 -1352 1353 0
-1353 1363 0
-100 -1353 1354 0
-1354 1364 0
-101 -1354 1355 0
-1355 1365 0
-102 -1355 1356 0
-1356 1366 0
-103 -1356 1357 0
-1357 1367 0
-104 -1357 0
-95 1358 0
-1358 1368 0
-96 -1358 1359 0
-1359 1369 0
-97 -1359 1360 0
-1360 1370 0
-98 -1360 1361 0
-1361 1371 0
-99 -1361 1362 0
-1362 1372 0
-100 -1362 1363 0
-1363 1373 0
-101 -1363 1364 0
-1364 1374 0
-102 -1364 1365 0
-1365 1375 0
-103 -1365 1366 0
-1366 1376 0
-104 -1366 1367 0
-1367 1377 0
-105 -1367 0
-96 1368 0
-1368 1378 0
-97 -1368 1369 0
-1369 1379 0
-98 -1369 1370 0
-1370 1380 0
-99 -1370 1371 0
-1371 1381 0
-100 -1371 1372 0
-1372 1382 0
-101 -1372 1373 0
-1373 1383 0
-102 -1373 1374 0
-1374 1384 0
-103 -1374 1375 0
-1375 1385 0
-104 -1375 1376 0
-1376 1386 0
-105 -1376 1377 0
-1377 1387 0
-106 -1377 0
-97 1378 0
-1378 1388 0
-98 -1378 1379 0
-1379 1389 0
-99 -1379 1380 0
-1380 1390 0
-100 -1380 1381 0
-1381 1391 0
-101 -1381 1382 0
-1382 1392 0
-102 -1382 1383 0
-1383 1393 0
-103 -1383 1384 0
-1384 1394 0
-104 -1384 1385 0
-1385 1395 0
-105 -1385 1386 0
-1386 1396 0
-106 -1386 1387 0
-1387 1397 0
-107 -1387 0
-98 1388 0
-1388 1398 0
-99 -1388 1389 0
-1389 1399 0
-100 -1389 1390 0
-1390 1400 0
-101 -1390 1391 0
-1391 1401 0
-102 -1391 1392 0
-1392 1402 0
-103 -1392 1393 0
-1393 1403 0
-104 -1393 1394 0
-1394 1404 0
-105 -1394 1395 0
-1395 1405 0
-106 -1395 1396 0
-1396 1406 0
-107 -1396 1397 0
-1397 1407 0
-108 -1397 0
-99 1398 0
-1398 1408 0
-100 -1398 1399 0
-1399 1409 0
-101 -1399 1400 0
-1400 1410 0
-102 -1400 1401 0
-1401 1411 0
-103 -1401 1402 0
-1402 1412 0
-104 -1402 1403 0
-1403 1413 0
-105 -1403 1404 0
-1404 1414 0
-106 -1404 1405 0
-1405 1415 0
-107 -1405 1406 0
-1406 1416 0
-108 -1406 1407 0
-1407 1417 0
-109 -1407 0
-100 1408 0
-1408 1418 0
-101 -1408 1409 0
-1409 1419 0
-102 -1409 1410 0
-1410 1420 0
-103 -1410 1411 0
-1411 1421 0
-104 -1411 1412 0
-1412 1422 0
-105 -1412 1413 0
-1413 1423 0
-106 -1413 1414 0
-1414 1424 0
-107 -1414 1415 0
-1415 1425 0
-108 -1415 1416 0
-1416 1426 0
-109 -1416 1417 0
-1417 1427 0
-110 -1417 0
-101 1418 0
-1418 1428 0
-102 -1418 1419 0
-1419 1429 0
-103 -1419 1420 0
-1420 1430 0
-104 -1420 1421 0
-1421 1431 0
-105 -1421 1422 0
-1422 1432 0
-106 -1422 1423 0
-1423 1433 0
-107 -1423 1424 0
-1424 1434 0
-108 -1424 1425 0
-1425 1435 0
-109 -1425 1426 0
-1426 1436 0
-110 -1426 1427 0
-1427 1437 0
-111 -1427 0
-102 1428 0
-1428 1438 0
-103 -1428 1429 0
-1429 1439 0
-104 -1429 1430 0
-1430 1440 0
-105 -1430 1431 0
-1431 1441 0
-106 -1431 1432 0
-1432 1442 0
-107 -1432 1433 0
-1433 1443 0
-108 -1433 1434 0
-1434 1444 0
-109 -1434 1435 0
-1435 1445 0
-110 -1435 1436 0
-1436 1446 0
-111 -1436 1437 0
-1437 1447 0
-112 -1437 0
-103 1438 0
-1438 1448 0
-104 -1438 1439 0
-1439 1449 0
-105 -1439 1440 0
-1440 1450 0
-106 -1440 1441 0
-1441 1451 0
-107 -1441 1442 0
-1442 1452 0
-108 -1442 1443 0
-1443 1453 0
-109 -1443 1444 0
-1444 1454 0
-110 -1444 1445 0
-1445 1455 0
-111 -1445 1446 0
-1446 1456 0
-112 -1446 1447 0
-1447 1457 0
-113 -1447 0
-104 1448 0
-1448 1458 0
-105 -1448 1449 0
-1449 1459 0
-106 -1449 1450 0
-1450 1460 0
-107 -1450 1451 0
-1451 1461 0
-108 -1451 1452 0
-1452 1462 0
-109 -1452 1453 0
-1453 1463 0
-110 -1453 1454 0
-1454 1464 0
-111 -1454 1455 0
-1455 1465 0
-112 -1455 1456 0
-1456 1466 0
-113 -1456 1457 0
-1457 1467 0
-114 -1457 0
-105 1458 0
-1458 1468 0
-106 -1458 1459 0
-1459 1469 0
-107 -1459 1460 0
-1460 1470 0
-108 -1460 1461 0
-1461 1471 0
-109 -1461 1462 0
-1462 1472 0
-110 -1462 1463 0
-1463 1473 0
-111 -1463 1464 0
-1464 1474 0
-112 -1464 1465 0
-1465 1475 0
-113 -1465 1466 0
-1466 1476 0
-114 -1466 1467 0
-1467 1477 0
-115 -1467 0
-106 1468 0
-1468 1478 0
-107 -1468 1469 0
-1469 1479 0
-108 -1469 1470 0
-1470 1480 0
-109 -1470 1471 0
-1471 1481 0
-110 -1471 1472 0
-1472 1482 0
-111 -1472 1473 0
-1473 1483 0
-112 -1473 1474 0
-1474 1484 0
-113 -1474 1475 0
-1475 1485 0
-114 -1475 1476 0
-1476 1486 0
-115 -1476 1477 0
-1477 1487 0
-116 -1477 0
-107 1478 0
-1478 1488 0
-108 -1478 1479 0
-1479 1489 0
-109 -1479 1480 0
-1480 1490 0
-110 -1480 1481 0
-1481 1491 0
-111 -1481 1482 0
-1482 1492 0
-112 -1482 1483 0
-1483 1493 0
-113 -1483 1484 0
-1484 1494 0
-114 -1484 1485 0
-1485 1495 0
-115 -1485 1486 0
-1486 1496 0
-116 -1486 1487 0
-1487 1497 0
-117 -1487 0
-108 1488 0
-1488 1498 0
-109 -1488 1489 0
-1489 1499 0
-110 -1489 1490 0
-1490 1500 0
-111 -1490 1491 0
-1491 1501 0
-112 -1491 1492 0
-1492 1502 0
-113 -1492 1493 0
-1493 1503 0
-114 -1493 1494 0
-1494 1504 0
-115 -1494 1495 0
-1495 1505 0
-116 -1495 1496 0
-1496 1506 0
-117 -1496 1497 0
-1497 1507 0
-118 -1497 0
-109 1498 0
-1498 1508 0
-110 -1498 1499 0
-1499 1509 0
-111 -1499 1500 0
-1500 1510 0
-112 -1500 1501 0
-1501 1511 0
-113 -1501 1502 0
-1502 1512 0
-114 -1502 1503 0
-1503 1513 0
-115 -1503 1504 0
-1504 1514 0
-116 -1504 1505 0
-1505 1515 0
-117 -1505 1506 0
-1506 1516 0
-118 -1506 1507 0
-1507 1517 0
-119 -1507 0
-110 1508 0
-1508 1518 0
-111 -1508 1509 0
-1509 1519 0
-112 -1509 1510 0
-1510 1520 0
-113 -1510 1511 0
-1511 1521 0
-114 -1511 1512 0
-1512 1522 0
-115 -1512 1513 0
-1513 1523 0
-116 -1513 1514 0
-1514 1524 0
-117 -1514 1515 0
-1515 1525 0
-118 -1515 1516 0
-1516 1526 0
-119 -1516 1517 0
-1517 1527 0
-120 -1517 0
-111 1518 0
-1518 1528 0
-112 -1518 1519 0
-1519 1529 0
-113 -1519 1520 0
-1520 1530 0
-114 -1520 1521 0
-1521 1531 0
-115 -1521 1522 0
-1522 1532 0
-116 -1522 1523 0
-1523 1533 0
-117 -1523 1524 0
-1524 1534 0
-118 -1524 1525 0
-1525 1535 0
-119 -1525 1526 0
-1526 1536 0
-120 -1526 1527 0
-1527 1537 0
-121 -1527 0
-112 1528 0
-1528 1538 0
-113 -1528 1529 0
-1529 1539 0
-114 -1529 1530 0
-1530 1540 0
-115 -1530 1531 0
-1531 1541 0
-116 -1531 1532 0
-1532 1542 0
-117 -1532 1533 0
-1533 1543 0
-118 -1533 1534 0
-1534 1544 0
-119 -1534 1535 0
-1535 1545 0
-120 -1535 1536 0
-1536 1546 0
-121 -1536 1537 0
-1537 1547 0
-122 -1537 0
-113 1538 0
-1538 1548 0
-114 -1538 1539 0
-1539 1549 0
-115 -1539 1540 0
-1540 1550 0
-116 -1540 1541 0
-1541 1551 0
-117 -1541 1542 0
-1542 1552 0
-118 -1542 1543 0
-1543 1553 0
-119 -1543 1544 0
-1544 1554 0
-120 -1544 1545 0
-1545 1555 0
-121 -1545 1546 0
-1546 1556 0
-122 -1546 1547 0
-1547 1557 0
-123 -1547 0
-114 1548 0
-1548 1558 0
-115 -1548 1549 0
-1549 1559 0
-116 -1549 1550 0
-1550 1560 0
-117 -1550 1551 0
-1551 1561 0
-118 -1551 1552 0
-1552 1562 0
-119 -1552 1553 0
-1553 1563 0
-120 -1553 1554 0
-1554 1564 0
-121 -1554 1555 0
-1555 1565 0
-122 -1555 1556 0
-1556 1566 0
-123 -1556 1557 0
-1557 1567 0
-124 -1557 0
-115 1558 0
-1558 1568 0
-116 -1558 1559 0
-1559 1569 0
-117 -1559 1560 0
-1560 1570 0
-118 -1560 1561 0
-1561 1571 0
-119 -1561 1562 0
-1562 1572 0
-120 -1562 1563 0
-1563 1573 0
-121 -1563 1564 0
-1564 1574 0
-122 -1564 1565 0
-1565 1575 0
-123 -1565 1566 0
-1566 1576 0
-124 -1566 1567 0
-1567 1577 0
-125 -1567 0
-116 1568 0
-1568 1578 0
-117 -1568 1569 0
-1569 1579 0
-118 -1569 1570 0
-1570 1580 0
-119 -1570 1571 0
-1571 1581 0
-120 -1571 1572 0
-1572 1582 0
-121 -1572 1573 0
-1573 1583 0
-122 -1573 1574 0
-1574 1584 0
-123 -1574 1575 0
-1575 1585 0
-124 -1575 1576 0
-1576 1586 0
-125 -1576 1577 0
-1577 1587 0
-126 -1577 0
-117 1578 0
-1578 1588 0
-118 -1578 1579 0
-1579 1589 0
-119 -1579 1580 0
-1580 1590 0
-120 -1580 1581 0
-1581 1591 0
-121 -1581 1582 0
-1582 1592 0
-122 -1582 1583 0
-1583 1593 0
-123 -1583 1584 0
-1584 1594 0
-124 -1584 1585 0
-1585 1595 0
-125 -1585 1586 0
-1586 1596 0
-126 -1586 1587 0
-1587 1597 0
-127 -1587 0
-118 1588 0
-1588 1598 0
-119 -1588 1589 0
-1589 1599 0
-120 -1589 1590 0
-1590 1600 0
-121 -1590 1591 0
-1591 1601 0
-122 -1591 1592 0
-1592 1602 0
-123 -1592 1593 0
-1593 1603 0
-124 -1593 1594 0
-1594 1604 0
-125 -1594 1595 0
-1595 1605 0
-126 -1595 1596 0
-1596 1606 0
-127 -1596 1597 0
-1597 1607 0
-128 -1597 0
-119 1598 0
-1598 1608 0
-120 -1598 1599 0
-1599 1609 0
-121 -1599 1600 0
-1600 1610 0
-122 -1600 1601 0
-1601 1611 0
-123 -1601 1602 0
-1602 1612 0
-124 -1602 1603 0
-1603 1613 0
-125 -1603 1604 0
-1604 1614 0
-126 -1604 1605 0
-1605 1615 0
-127 -1605 1606 0
-1606 1616 0
-128 -1606 1607 0
-1607 1617 0
-129 -1607 0
-120 1608 0
-1608 1618 0
-121 -1608 1609 0
-1609 1619 0
-122 -1609 1610 0
-1610 1620 0
-123 -1610 1611 0
-1611 1621 0
-124 -1611 1612 0
-1612 1622 0
-125 -1612 1613 0
-1613 1623 0
-126 -1613 1614 0
-1614 1624 0
-127 -1614 1615 0
-1615 1625 0
-128 -1615 1616 0
-1616 1626 0
-129 -1616 1617 0
-1617 1627 0
-130 -1617 0
-121 1618 0
-1618 1628 0
-122 -1618 1619 0
-1619 1629 0
-123 -1619 1620 0
-1620 1630 0
-124 -1620 1621 0
-1621 1631 0
-125 -1621 1622 0
-1622 1632 0
-126 -1622 1623 0
-1623 1633 0
-127 -1623 1624 0
-1624 1634 0
-128 -1624 1625 0
-1625 1635 0
-129 -1625 1626 0
-1626 1636 0
-130 -1626 1627 0
-1627 1637 0
-131 -1627 0
-122 1628 0
-1628 1638 0
-123 -1628 1629 0
-1629 1639 0
-124 -1629 1630 0
-1630 1640 0
-125 -1630 1631 0
-1631 1641 0
-126 -1631 1632 0
-1632 1642 0
-127 -1632 1633 0
-1633 1643 0
-128 -1633 1634 0
-1634 1644 0
-129 -1634 1635 0
-1635 1645 0
-130 -1635 1636 0
-1636 1646 0
-131 -1636 1637 0
-1637 1647 0
-132 -1637 0
-123 1638 0
-1638 1648 0
-124 -1638 1639 0
-1639 1649 0
-125 -1639 1640 0
-1640 1650 0
-126 -1640 1641 0
-1641 1651 0
-127 -1641 1642 0
-1642 1652 0
-128 -1642 1643 0
-1643 1653 0
-129 -1643 1644 0
-1644 1654 0
-130 -1644 1645 0
-1645 1655 0
-131 -1645 1646 0
-1646 1656 0
-132 -1646 1647 0
-1647 1657 0
-133 -1647 0
-124 1648 0
-1648 1658 0
-125 -1648 1649 0
-1649 1659 0
-126 -1649 1650 0
-1650 1660 0
-127 -1650 1651 0
-1651 1661 0
-128 -1651 1652 0
-1652 1662 0
-129 -1652 1653 0
-1653 1663 0
-130 -1653 1654 0
-1654 1664 0
-131 -1654 1655 0
-1655 1665 0
-132 -1655 1656 0
-1656 1666 0
-133 -1656 1657 0
-1657 1667 0
-134 -1657 0
-125 1658 0
-1658 1668 0
-126 -1658 1659 0
-1659 1669 0
-127 -1659 1660 0
-1660 1670 0
-128 -1660 1661 0
-1661 1671 0
-129 -1661 1662 0
-1662 1672 0
-130 -1662 1663 0
-1663 1673 0
-131 -1663 1664 0
-1664 1674 0
-132 -1664 1665 0
-1665 1675 0
-133 -1665 1666 0
-1666 1676 0
-134 -1666 1667 0
-1667 1677 0
-135 -1667 0
-126 1668 0
-1668 1678 0
-127 -1668 1669 0
-1669 1679 0
-128 -1669 1670 0
-1670 1680 0
-129 -1670 1671 0
-1671 1681 0
-130 -1671 1672 0
-1672 1682 0
-131 -1672 1673 0
-1673 1683 0
-132 -1673 1674 0
-1674 1684 0
-133 -1674 1675 0
-1675 1685 0
-134 -1675 1676 0
-1676 1686 0
-135 -1676 1677 0
-1677 1687 0
-136 -1677 0
-127 1678 0
-1678 1688 0
-128 -1678 1679 0
-1679 1689 0
-129 -1679 1680 0
-1680 1690 0
-130 -1680 1681 0
-1681 1691 0
-131 -1681 1682 0
-1682 1692 0
-132 -1682 1683 0
-1683 1693 0
-133 -1683 1684 0
-1684 1694 0
-134 -1684 1685 0
-1685 1695 0
-135 -1685 1686 0
-1686 1696 0
-136 -1686 1687 0
-1687 1697 0
-137 -1687 0
-128 1688 0
-1688 1698 0
-129 -1688 1689 0
-1689 1699 0
-130 -1689 1690 0
-1690 1700 0
-131 -1690 1691 0
-1691 1701 0
-132 -1691 1692 0
-1692 1702 0
-133 -1692 1693 0
-1693 1703 0
-134 -1693 1694 0
-1694 1704 0
-135 -1694 1695 0
-1695 1705 0
-136 -1695 1696 0
-1696 1706 0
-137 -1696 1697 0
-1697 1707 0
-138 -1697 0
-129 1698 0
-1698 1708 0
-130 -1698 1699 0
-1699 1709 0
-131 -1699 1700 0
-1700 1710 0
-132 -1700 1701 0
-1701 1711 0
-133 -1701 1702 0
-1702 1712 0
-134 -1702 1703 0
-1703 1713 0
-135 -1703 1704 0
-1704 1714 0
-136 -1704 1705 0
-1705 1715 0
-137 -1705 1706 0
-1706 1716 0
-138 -1706 1707 0
-1707 1717 0
-139 -1707 0
-130 1708 0
-1708 1718 0
-131 -1708 1709 0
-1709 1719 0
-132 -1709 1710 0
-1710 1720 0
-133 -1710 1711 0
-1711 1721 0
-134 -1711 1712 0
-1712 1722 0
-135 -1712 1713 0
-1713 1723 0
-136 -1713 1714 0
-1714 1724 0
-137 -1714 1715 0
-1715 1725 0
-138 -1715 1716 0
-1716 1726 0
-139 -1716 1717 0
-1717 1727 0
-140 -1717 0
-131 1718 0
-1718 1728 0
-132 -1718 1719 0
-1719 1729 0
-133 -1719 1720 0
-1720 1730 0
-134 -1720 1721 0
-1721 1731 0
-135 -1721 1722 0
-1722 1732 0
-136 -1722 1723 0
-1723 1733 0
-137 -1723 1724 0
-1724 1734 0
-138 -1724 1725 0
-1725 1735 0
-139 -1725 1726 0
-1726 1736 0
-140 -1726 1727 0
-1727 1737 0
-141 -1727 0
-132 1728 0
-1728 1738 0
-133 -1728 1729 0
-1729 1739 0
-134 -1729 1730 0
-1730 1740 0
-135 -1730 1731 0
-1731 1741 0
-136 -1731 1732 0
-1732 1742 0
-137 -1732 1733 0
-1733 1743 0
-138 -1733 1734 0
-1734 1744 0
-139 -1734 1735 0
-1735 1745 0
-140 -1735 1736 0
-1736 1746 0
-141 -1736 1737 0
-1737 1747 0
-142 -1737 0
-133 1738 0
-1738 1748 0
-134 -1738 1739 0
-1739 1749 0
-135 -1739 1740 0
-1740 1750 0
-136 -1740 1741 0
-1741 1751 0
-137 -1741 1742 0
-1742 1752 0
-138 -1742 1743 0
-1743 1753 0
-139 -1743 1744 0
-1744 1754 0
-140 -1744 1745 0
-1745 1755 0
-141 -1745 1746 0
-1746 1756 0
-142 -1746 1747 0
-1747 1757 0
-143 -1747 0
-134 1748 0
-1748 1758 0
-135 -1748 1749 0
-1749 1759 0
-136 -1749 1750 0
-1750 1760 0
-137 -1750 1751 0
-1751 1761 0
-138 -1751 1752 0
-1752 1762 0
-139 -1752 1753 0
-1753 1763 0
-140 -1753 1754 0
-1754 1764 0
-141 -1754 1755 0
-1755 1765 0
-142 -1755 1756 0
-1756 1766 0
-143 -1756 1757 0
-1757 1767 0
-144 -1757 0
-135 1758 0
-1758 1768 0
-136 -1758 1759 0
-1759 1769 0
-137 -1759 1760 0
-1760 1770 0
-138 -1760 1761 0
-1761 1771 0
-139 -1761 1762 0
-1762 1772 0
-140 -1762 1763 0
-1763 1773 0
-141 -1763 1764 0
-1764 1774 0
-142 -1764 1765 0
-1765 1775 0
-143 -1765 1766 0
-1766 1776 0
-144 -1766 1767 0
-1767 1777 0
-145 -1767 0
-136 1768 0
-1768 1778 0
-137 -1768 1769 0
-1769 1779 0
-138 -1769 1770 0
-1770 1780 0
-139 -1770 1771 0
-1771 1781 0
-140 -1771 1772 0
-1772 1782 0
-141 -1772 1773 0
-1773 1783 0
-142 -1773 1774 0
-1774 1784 0
-143 -1774 1775 0
-1775 1785 0
-144 -1775 1776 0
-1776 1786 0
-145 -1776 1777 0
-1777 1787 0
-146 -1777 0
-137 1778 0
-1778 1788 0
-138 -1778 1779 0
-1779 1789 0
-139 -1779 1780 0
-1780 1790 0
-140 -1780 1781 0
-1781 1791 0
-141 -1781 1782 0
-1782 1792 0
-142 -1782 1783 0
-1783 1793 0
-143 -1783 1784 0
-1784 1794 0
-144 -1784 1785 0
-1785 1795 0
-145 -1785 1786 0
-1786 1796 0
-146 -1786 1787 0
-1787 1797 0
-147 -1787 0
-138 1788 0
-1788 1798 0
-139 -1788 1789 0
-1789 1799 0
-140 -1789 1790 0
-1790 1800 0
-141 -1790 1791 0
-1791 1801 0
-142 -1791 1792 0
-1792 1802 0
-143 -1792 1793 0
-1793 1803 0
-144 -1793 1794 0
-1794 1804 0
-145 -1794 1795 0
-1795 1805 0
-146 -1795 1796 0
-1796 1806 0
-147 -1796 1797 0
-1797 1807 0
-148 -1797 0
-139 1798 0
-1798 1808 0
-140 -1798 1799 0
-1799 1809 0
-141 -1799 1800 0
-1800 1810 0
-142 -1800 1801 0
-1801 1811 0
-143 -1801 1802 0
-1802 1812 0
-144 -1802 1803 0
-1803 1813 0
-145 -1803 1804 0
-1804 1814 0
-146 -1804 1805 0
-1805 1815 0
-147 -1805 1806 0
-1806 1816 0
-148 -1806 1807 0
-1807 1817 0
-149 -1807 0
-140 1808 0
-1808 1818 0
-141 -1808 1809 0
-1809 1819 0
-142 -1809 1810 0
-1810 1820 0
-143 -1810 1811 0
-1811 1821 0
-144 -1811 1812 0
-1812 1822 0
-145 -1812 1813 0
-1813 1823 0
-146 -1813 1814 0
-1814 1824 0
-147 -1814 1815 0
-1815 1825 0
-148 -1815 1816 0
-1816 1826 0
-149 -1816 1817 0
-1817 1827 0
-150 -1817 0
-141 1818 0
-1818 1828 0
-142 -1818 1819 0
-1819 1829 0
-143 -1819 1820 0
-1820 1830 0
-144 -1820 1821 0
-1821 1831 0
-145 -1821 1822 0
-1822 1832 0
-146 -1822 1823 0
-1823 1833 0
-147 -1823 1824 0
-1824 1834 0
-148 -1824 1825 0
-1825 1835 0
-149 -1825 1826 0
-1826 1836 0
-150 -1826 1827 0
-1827 1837 0
-151 -1827 0
-142 1828 0
-1828 1838 0
-143 -1828 1829 0
-1829 1839 0
-144 -1829 1830 0
-1830 1840 0
-145 -1830 1831 0
-1831 1841 0
-146 -1831 1832 0
-1832 1842 0
-147 -1832 1833 0
-1833 1843 0
-148 -1833 1834 0
-1834 1844 0
-149 -1834 1835 0
-1835 1845 0
-150 -1835 1836 0
-1836 1846 0
-151 -1836 1837 0
-1837 1847 0
-152 -1837 0
-143 1838 0
-1838 1848 0
-144 -1838 1839 0
-1839 1849 0
-145 -1839 1840 0
-1840 1850 0
-146 -1840 1841 0
-1841 1851 0
-147 -1841 1842 0
-1842 1852 0
-148 -1842 1843 0
-1843 1853 0
-149 -1843 1844 0
-1844 1854 0
-150 -1844 1845 0
-1845 1855 0
-151 -1845 1846 0
-1846 1856 0
-152 -1846 1847 0
-1847 1857 0
-153 -1847 0
-144 1848 0
-1848 1858 0
-145 -1848 1849 0
-1849 1859 0
-146 -1849 1850 0
-1850 1860 0
-147 -1850 1851 0
-1851 1861 0
-148 -1851 1852 0
-1852 1862 0
-149 -1852 1853 0
-1853 1863 0
-150 -1853 1854 0
-1854 1864 0
-151 -1854 1855 0
-1855 1865 0
-152 -1855 1856 0
-1856 1866 0
-153 -1856 1857 0
-1857 1867 0
-154 -1857 0
-145 1858 0
-1858 1868 0
-146 -1858 1859 0
-1859 1869 0
-147 -1859 1860 0
-1860 1870 0
-148 -1860 1861 0
-1861 1871 0
-149 -1861 1862 0
-1862 1872 0
-150 -1862 1863 0
-1863 1873 0
-151 -1863 1864 0
-1864 1874 0
-152 -1864 1865 0
-1865 1875 0
-153 -1865 1866 0
-1866 1876 0
-154 -1866 1867 0
-1867 1877 0
-155 -1867 0
-146 1868 0
-1868 1878 0
-147 -1868 1869 0
-1869 1879 0
-148 -1869 1870 0
-1870 1880 0
-149 -1870 1871 0
-1871 1881 0
-150 -1871 1872 0
-1872 1882 0
-151 -1872 1873 0
-1873 1883 0
-152 -1873 1874 0
-1874 1884 0
-153 -1874 1875 0
-1875 1885 0
-154 -1875 1876 0
-1876 1886 0
-155 -1876 1877 0
-1877 1887 0
-156 -1877 0
-147 1878 0
-1878 1888 0
-148 -1878 1879 0
-1879 1889 0
-149 -1879 1880 0
-1880 1890 0
-150 -1880 1881 0
-1881 1891 0
-151 -1881 1882 0
-1882 1892 0
-152 -1882 1883 0
-1883 1893 0
-153 -1883 1884 0
-1884 1894 0
-154 -1884 1885 0
-1885 1895 0
-155 -1885 1886 0
-1886 1896 0
-156 -1886 1887 0
-1887 1897 0
-157 -1887 0
-148 1888 0
-1888 1898 0
-149 -1888 1889 0
-1889 1899 0
-150 -1889 1890 0
-1890 1900 0
-151 -1890 1891 0
-1891 1901 0
-152 -1891 1892 0
-1892 1902 0
-153 -1892 1893 0
-1893 1903 0
-154 -1893 1894 0
-1894 1904 0
-155 -1894 1895 0
-1895 1905 0
-156 -1895 1896 0
-1896 1906 0
-157 -1896 1897 0
-1897 1907 0
-158 -1897 0
-149 1898 0
-1898 1908 0
-150 -1898 1899 0
-1899 1909 0
-151 -1899 1900 0
-1900 1910 0
-152 -1900 1901 0
-1901 1911 0
-153 -1901 1902 0
-1902 1912 0
-154 -1902 1903 0
-1903 1913 0
-155 -1903 1904 0
-1904 1914 0
-156 -1904 1905 0
-1905 1915 0
-157 -1905 1906 0
-1906 1916 0
-158 -1906 1907 0
-1907 1917 0
-159 -1907 0
-150 1908 0
-1908 1918 0
-151 -1908 1909 0
-1909 1919 0
-152 -1909 1910 0
-1910 1920 0
-153 -1910 1911 0
-1911 1921 0
-154 -1911 1912 0
-1912 1922 0
-155 -1912 1913 0
-1913 1923 0
-156 -1913 1914 0
-1914 1924 0
-157 -1914 1915 0
-1915 1925 0
-158 -1915 1916 0
-1916 1926 0
-159 -1916 1917 0
-1917 1927 0
-160 -1917 0
-151 1918 0
-1918 1928 0
-152 -1918 1919 0
-1919 1929 0
-153 -1919 1920 0
-1920 1930 0
-154 -1920 1921 0
-1921 1931 0
-155 -1921 1922 0
-1922 1932 0
-156 -1922 1923 0
-1923 1933 0
-157 -1923 1924 0
-1924 1934 0
-158 -1924 1925 0
-1925 1935 0
-159 -1925 1926 0
-1926 1936 0
-160 -1926 1927 0
-1927 1937 0
-161 -1927 0
-152 1928 0
-1928 1938 0
-153 -1928 1929 0
-1929 1939 0
-154 -1929 1930 0
-1930 1940 0
-155 -1930 1931 0
-1931 1941 0
-156 -1931 1932 0
-1932 1942 0
-157 -1932 1933 0
-1933 1943 0
-158 -1933 1934 0
-1934 1944 0
-159 -1934 1935 0
-1935 1945 0
-160 -1935 1936 0
-1936 1946 0
-161 -1936 1937 0
-1937 1947 0
-162 -1937 0
-153 1938 0
-1938 1948 0
-154 -1938 1939 0
-1939 1949 0
-155 -1939 1940 0
-1940 1950 0
-156 -1940 1941 0
-1941 1951 0
-157 -1941 1942 0
-1942 1952 0
-158 -1942 1943 0
-1943 1953 0
-159 -1943 1944 0
-1944 1954 0
-160 -1944 1945 0
-1945 1955 0
-161 -1945 1946 0
-1946 1956 0
-162 -1946 1947 0
-1947 1957 0
-163 -1947 0
-154 1948 0
-1948 1958 0
-155 -1948 1949 0
-1949 1959 0
-156 -1949 1950 0
-1950 1960 0
-157 -1950 1951 0
-1951 1961 0
-158 -1951 1952 0
-1952 1962 0
-159 -1952 1953 0
-1953 1963 0
-160 -1953 1954 0
-1954 1964 0
-161 -1954 1955 0
-1955 1965 0
-162 -1955 1956 0
-1956 1966 0
-163 -1956 1957 0
-1957 1967 0
-164 -1957 0
-155 1958 0
-1958 1968 0
-156 -1958 1959 0
-1959 1969 0
-157 -1959 1960 0
-1960 1970 0
-158 -1960 1961 0
-1961 1971 0
-159 -1961 1962 0
-1962 1972 0
-160 -1962 1963 0
-1963 1973 0
-161 -1963 1964 0
-1964 1974 0
-162 -1964 1965 0
-1965 1975 0
-163 -1965 1966 0
-1966 1976 0
-164 -1966 1967 0
-1967 1977 0
-165 -1967 0
-156 1968 0
-1968 1978 0
-157 -1968 1969 0
-1969 1979 0
-158 -1969 1970 0
-1970 1980 0
-159 -1970 1971 0
-1971 1981 0
-160 -1971 1972 0
-1972 1982 0
-161 -1972 1973 0
-1973 1983 0
-162 -1973 1974 0
-1974 1984 0
-163 -1974 1975 0
-1975 1985 0
-164 -1975 1976 0
-1976 1986 0
-165 -1976 1977 0
-1977 1987 0
-166 -1977 0
-157 1978 0
-1978 1988 0
-158 -1978 1979 0
-1979 1989 0
-159 -1979 1980 0
-1980 1990 0
-160 -1980 1981 0
-1981 1991 0
-161 -1981 1982 0
-1982 1992 0
-162 -1982 1983 0
-1983 1993 0
-163 -1983 1984 0
-1984 1994 0
-164 -1984 1985 0
-1985 1995 0
-165 -1985 1986 0
-1986 1996 0
-166 -1986 1987 0
-1987 1997 0
-167 -1987 0
-158 1988 0
-1988 1998 0
-159 -1988 1989 0
-1989 1999 0
-160 -1989 1990 0
-1990 2000 0
-161 -1990 1991 0
-1991 2001 0
-162 -1991 1992 0
-1992 2002 0
-163 -1992 1993 0
-1993 2003 0
-164 -1993 1994 0
-1994 2004 0
-165 -1994 1995 0
-1995 2005 0
-166 -1995 1996 0
-1996 2006 0
-167 -1996 1997 0
-1997 2007 0
-168 -1997 0
-159 1998 0
-1998 2008 0
-160 -1998 1999 0
-1999 2009 0
-161 -1999 2000 0
-2000 2010 0
-162 -2000 2001 0
-2001 2011 0
-163 -2001 2002 0
-2002 2012 0
-164 -2002 2003 0
-2003 2013 0
-165 -2003 2004 0
-2004 2014 0
-166 -2004 2005 0
-2005 2015 0
-167 -2005 2006 0
-2006 2016 0
-168 -2006 2007 0
-2007 2017 0
-169 -2007 0
-160 2008 0
-2008 2018 0
-161 -2008 2009 0
-2009 2019 0
-162 -2009 2010 0
-2010 2020 0
-163 -2010 2011 0
-2011 2021 0
-164 -2011 2012 0
-2012 2022 0
-165 -2012 2013 0
-2013 2023 0
-166 -2013 2014 0
-2014 2024 0
-167 -2014 2015 0
-2015 2025 0
-168 -2015 2016 0
-2016 2026 0
-169 -2016 2017 0
-2017 2027 0
-170 -2017 0
-161 2018 0
-2018 2028 0
-162 -2018 2019 0
-2019 2029 0
-163 -2019 2020 0
-2020 2030 0
-164 -2020 2021 0
-2021 2031 0
-165 -2021 2022 0
-2022 2032 0
-166 -2022 2023 0
-2023 2033 0
-167 -2023 2024 0
-2024 2034 0
-168 -2024 2025 0
-2025 2035 0
-169 -2025 2026 0
-2026 2036 0
-170 -2026 2027 0
-2027 2037 0
-171 -2027 0
-162 2028 0
-2028 2038 0
-163 -2028 2029 0
-2029 2039 0
-164 -2029 2030 0
-2030 2040 0
-165 -2030 2031 0
-2031 2041 0
-166 -2031 2032 0
-2032 2042 0
-167 -2032 2033 0
-2033 2043 0
-168 -2033 2034 0
-2034 2044 0
-169 -2034 2035 0
-2035 2045 0
-170 -2035 2036 0
-2036 2046 0
-171 -2036 2037 0
-2037 2047 0
-172 -2037 0
-163 2038 0
-2038 2048 0
-164 -2038 2039 0
-2039 2049 0
-165 -2039 2040 0
-2040 2050 0
-166 -2040 2041 0
-2041 2051 0
-167 -2041 2042 0
-2042 2052 0
-168 -2042 2043 0
-2043 2053 0
-169 -2043 2044 0
-2044 2054 0
-170 -2044 2045 0
-2045 2055 0
-171 -2045 2046 0
-2046 2056 0
-172 -2046 2047 0
-2047 2057 0
-173 -2047 0
-164 2048 0
-2048 2058 0
-165 -2048 2049 0
-2049 2059 0
-166 -2049 2050 0
-2050 2060 0
-167 -2050 2051 0
-2051 2061 0
-168 -2051 2052 0
-2052 2062 0
-169 -2052 2053 0
-2053 2063 0
-170 -2053 2054 0
-2054 2064 0
-171 -2054 2055 0
-2055 2065 0
-172 -2055 2056 0
-2056 2066 0
-173 -2056 2057 0
-2057 2067 0
-174 -2057 0
-165 2058 0
-2058 2068 0
-166 -2058 2059 0
-2059 2069 0
-167 -2059 2060 0
-2060 2070 0
-168 -2060 2061 0
-2061 2071 0
-169 -2061 2062 0
-2062 2072 0
-170 -2062 2063 0
-2063 2073 0
-171 -2063 2064 0
-2064 2074 0
-172 -2064 2065 0
-2065 2075 0
-173 -2065 2066 0
-2066 2076 0
-174 -2066 2067 0
-2067 2077 0
-175 -2067 0
-166 2068 0
-2068 2078 0
-167 -2068 2069 0
-2069 2079 0
-168 -2069 2070 0
-2070 2080 0
-169 -2070 2071 0
-2071 2081 0
-170 -2071 2072 0
-2072 2082 0
-171 -2072 2073 0
-2073 2083 0
-172 -2073 2074 0
-2074 2084 0
-173 -2074 2075 0
-2075 2085 0
-174 -2075 2076 0
-2076 2086 0
-175 -2076 2077 0
-2077 2087 0
-176 -2077 0
-167 2078 0
-2078 2088 0
-168 -2078 2079 0
-2079 2089 0
-169 -2079 2080 0
-2080 2090 0
-170 -2080 2081 0
-2081 2091 0
-171 -2081 2082 0
-2082 2092 0
-172 -2082 2083 0
-2083 2093 0
-173 -2083 2084 0
-2084 2094 0
-174 -2084 2085 0
-2085 2095 0
-175 -2085 2086 0
-2086 2096 0
-176 -2086 2087 0
-2087 2097 0
-177 -2087 0
-168 2088 0
-2088 2098 0
-169 -2088 2089 0
-2089 2099 0
-170 -2089 2090 0
-2090 2100 0
-171 -2090 2091 0
-2091 2101 0
-172 -2091 2092 0
-2092 2102 0
-173 -2092 2093 0
-2093 2103 0
-174 -2093 2094 0
-2094 2104 0
-175 -2094 2095 0
-2095 2105 0
-176 -2095 2096 0
-2096 2106 0
-177 -2096 2097 0
-2097 2107 0
-178 -2097 0
-169 2098 0
-2098 2108 0
-170 -2098 2099 0
-2099 2109 0
-171 -2099 2100 0
-2100 2110 0
-172 -2100 2101 0
-2101 2111 0
-173 -2101 2102 0
-2102 2112 0
-174 -2102 2103 0
-2103 2113 0
-175 -2103 2104 0
-2104 2114 0
-176 -2104 2105 0
-2105 2115 0
-177 -2105 2106 0
-2106 2116 0
-178 -2106 2107 0
-2107 2117 0
-179 -2107 0
-170 2108 0
-2108 2118 0
-171 -2108 2109 0
-2109 2119 0
-172 -2109 2110 0
-2110 2120 0
-173 -2110 2111 0
-2111 2121 0
-174 -2111 2112 0
-2112 2122 0
-175 -2112 2113 0
-2113 2123 0
-176 -2113 2114 0
-2114 2124 0
-177 -2114 2115 0
-2115 2125 0
-178 -2115 2116 0
-2116 2126 0
-179 -2116 2117 0
-2117 2127 0
-180 -2117 0
-171 2118 0
-2118 2128 0
-172 -2118 2119 0
-2119 2129 0
-173 -2119 2120 0
-2120 2130 0
-174 -2120 2121 0
-2121 2131 0
-175 -2121 2122 0
-2122 2132 0
-176 -2122 2123 0
-2123 2133 0
-177 -2123 2124 0
-2124 2134 0
-178 -2124 2125 0
-2125 2135 0
-179 -2125 2126 0
-2126 2136 0
-180 -2126 2127 0
-2127 2137 0
-181 -2127 0
-172 2128 0
-2128 2138 0
-173 -2128 2129 0
-2129 2139 0
-174 -2129 2130 0
-2130 2140 0
-175 -2130 2131 0
-2131 2141 0
-176 -2131 2132 0
-2132 2142 0
-177 -2132 2133 0
-2133 2143 0
-178 -2133 2134 0
-2134 2144 0
-179 -2134 2135 0
-2135 2145 0
-180 -2135 2136 0
-2136 2146 0
-181 -2136 2137 0
-2137 2147 0
-182 -2137 0
-173 2138 0
-2138 2148 0
-174 -2138 2139 0
-2139 2149 0
-175 -2139 2140 0
-2140 2150 0
-176 -2140 2141 0
-2141 2151 0
-177 -2141 2142 0
-2142 2152 0
-178 -2142 2143 0
-2143 2153 0
-179 -2143 2144 0
-2144 2154 0
-180 -2144 2145 0
-2145 2155 0
-181 -2145 2146 0
-2146 2156 0
-182 -2146 2147 0
-2147 2157 0
-183 -2147 0
-174 2148 0
-2148 2158 0
-175 -2148 2149 0
-2149 2159 0
-176 -2149 2150 0
-2150 2160 0
-177 -2150 2151 0
-2151 2161 0
-178 -2151 2152 0
-2152 2162 0
-179 -2152 2153 0
-2153 2163 0
-180 -2153 2154 0
-2154 2164 0
-181 -2154 2155 0
-2155 2165 0
-182 -2155 2156 0
-2156 2166 0
-183 -2156 2157 0
-2157 2167 0
-184 -2157 0
-175 2158 0
-2158 2168 0
-176 -2158 2159 0
-2159 2169 0
-177 -2159 2160 0
-2160 2170 0
-178 -2160 2161 0
-2161 2171 0
-179 -2161 2162 0
-2162 2172 0
-180 -2162 2163 0
-2163 2173 0
-181 -2163 2164 0
-2164 2174 0
-182 -2164 2165 0
-2165 2175 0
-183 -2165 2166 0
-2166 2176 0
-184 -2166 2167 0
-2167 2177 0
-185 -2167 0
-176 2168 0
-2168 2178 0
-177 -2168 2169 0
-2169 2179 0
-178 -2169 2170 0
-2170 2180 0
-179 -2170 2171 0
-2171 2181 0
-180 -2171 2172 0
-2172 2182 0
-181 -2172 2173 0
-2173 2183 0
-182 -2173 2174 0
-2174 2184 0
-183 -2174 2175 0
-2175 2185 0
-184 -2175 2176 0
-2176 2186 0
-185 -2176 2177 0
-2177 2187 0
-186 -2177 0
-177 2178 0
-2178 2188 0
-178 -2178 2179 0
-2179 2189 0
-179 -2179 2180 0
-2180 2190 0
-180 -2180 2181 0
-2181 2191 0
-181 -2181 2182 0
-2182 2192 0
-182 -2182 2183 0
-2183 2193 0
-183 -2183 2184 0
-2184 2194 0
-184 -2184 2185 0
-2185 2195 0
-185 -2185 2186 0
-2186 2196 0
-186 -2186 2187 0
-2187 2197 0
-187 -2187 0
-178 2188 0
-2188 2198 0
-179 -2188 2189 0
-2189 2199 0
-180 -2189 2190 0
-2190 2200 0
-181 -2190 2191 0
-2191 2201 0
-182 -2191 2192 0
-2192 2202 0
-183 -2192 2193 0
-2193 2203 0
-184 -2193 2194 0
-2194 2204 0
-185 -2194 2195 0
-2195 2205 0
-186 -2195 2196 0
-2196 2206 0
-187 -2196 2197 0
-2197 2207 0
-188 -2197 0
-179 2198 0
-2198 2208 0
-180 -2198 2199 0
-2199 2209 0
-181 -2199 2200 0
-2200 2210 0
-182 -2200 2201 0
-2201 2211 0
-183 -2201 2202 0
-2202 2212 0
-184 -2202 2203 0
-2203 2213 0
-185 -2203 2204 0
-2204 2214 0
-186 -2204 2205 0
-2205 2215 0
-187 -2205 2206 0
-2206 2216 0
-188 -2206 2207 0
-2207 2217 0
-189 -2207 0
-180 2208 0
-2208 2218 0
-181 -2208 2209 0
-2209 2219 0
-182 -2209 2210 0
-2210 2220 0
-183 -2210 2211 0
-2211 2221 0
-184 -2211 2212 0
-2212 2222 0
-185 -2212 2213 0
-2213 2223 0
-186 -2213 2214 0
-2214 2224 0
-187 -2214 2215 0
-2215 2225 0
-188 -2215 2216 0
-2216 2226 0
-189 -2216 2217 0
-2217 2227 0
-190 -2217 0
-181 2218 0
-2218 2228 0
-182 -2218 2219 0
-2219 2229 0
-183 -2219 2220 0
-2220 2230 0
-184 -2220 2221 0
-2221 2231 0
-185 -2221 2222 0
-2222 2232 0
-186 -2222 2223 0
-2223 2233 0
-187 -2223 2224 0
-2224 2234 0
-188 -2224 2225 0
-2225 2235 0
-189 -2225 2226 0
-2226 2236 0
-190 -2226 2227 0
-2227 2237 0
-191 -2227 0
-182 2228 0
-2228 2238 0
-183 -2228 2229 0
-2229 2239 0
-184 -2229 2230 0
-2230 2240 0
-185 -2230 2231 0
-2231 2241 0
-186 -2231 2232 0
-2232 2242 0
-187 -2232 2233 0
-2233 2243 0
-188 -2233 2234 0
-2234 2244 0
-189 -2234 2235 0
-2235 2245 0
-190 -2235 2236 0
-2236 2246 0
-191 -2236 2237 0
-2237 2247 0
-192 -2237 0
-183 2238 0
-2238 2248 0
-184 -2238 2239 0
-2239 2249 0
-185 -2239 2240 0
-2240 2250 0
-186 -2240 2241 0
-2241 2251 0
-187 -2241 2242 0
-2242 2252 0
-188 -2242 2243 0
-2243 2253 0
-189 -2243 2244 0
-2244 2254 0
-190 -2244 2245 0
-2245 2255 0
-191 -2245 2246 0
-2246 2256 0
-192 -2246 2247 0
-2247 2257 0
-193 -2247 0
-184 2248 0
-2248 2258 0
-185 -2248 2249 0
-2249 2259 0
-186 -2249 2250 0
-2250 2260 0
-187 -2250 2251 0
-2251 2261 0
-188 -2251 2252 0
-2252 2262 0
-189 -2252 2253 0
-2253 2263 0
-190 -2253 2254 0
-2254 2264 0
-191 -2254 2255 0
-2255 2265 0
-192 -2255 2256 0
-2256 2266 0
-193 -2256 2257 0
-2257 2267 0
-194 -2257 0
-185 2258 0
-2258 2268 0
-186 -2258 2259 0
-2259 2269 0
-187 -2259 2260 0
-2260 2270 0
-188 -2260 2261 0
-2261 2271 0
-189 -2261 2262 0
-2262 2272 0
-190 -2262 2263 0
-2263 2273 0
-191 -2263 2264 0
-2264 2274 0
-192 -2264 2265 0
-2265 2275 0
-193 -2265 2266 0
-2266 2276 0
-194 -2266 2267 0
-2267 2277 0
-195 -2267 0
-186 2268 0
-2268 2278 0
-187 -2268 2269 0
-2269 2279 0
-188 -2269 2270 0
-2270 2280 0
-189 -2270 2271 0
-2271 2281 0
-190 -2271 2272 0
-2272 2282 0
-191 -2272 2273 0
-2273 2283 0
-192 -2273 2274 0
-2274 2284 0
-193 -2274 2275 0
-2275 2285 0
-194 -2275 2276 0
-2276 2286 0
-195 -2276 2277 0
-2277 2287 0
-196 -2277 0
-187 2278 0
-2278 2288 0
-188 -2278 2279 0
-2279 2289 0
-189 -2279 2280 0
-2280 2290 0
-190 -2280 2281 0
-2281 2291 0
-191 -2281 2282 0
-2282 2292 0
-192 -2282 2283 0
-2283 2293 0
-193 -2283 2284 0
-2284 2294 0
-194 -2284 2285 0
-2285 2295 0
-195 -2285 2286 0
-2286 2296 0
-196 -2286 2287 0
-2287 2297 0
-197 -2287 0
-188 2288 0
-2288 2298 0
-189 -2288 2289 0
-2289 2299 0
-190 -2289 2290 0
-2290 2300 0
-191 -2290 2291 0
-2291 2301 0
-192 -2291 2292 0
-2292 2302 0
-193 -2292 2293 0
-2293 2303 0
-194 -2293 2294 0
-2294 2304 0
-195 -2294 2295 0
-2295 2305 0
-196 -2295 2296 0
-2296 2306 0
-197 -2296 2297 0
-2297 2307 0
-198 -2297 0
-189 2298 0
-2298 2308 0
-190 -2298 2299 0
-2299 2309 0
-191 -2299 2300 0
-2300 2310 0
-192 -2300 2301 0
-2301 2311 0
-193 -2301 2302 0
-2302 2312 0
-194 -2302 2303 0
-2303 2313 0
-195 -2303 2304 0
-2304 2314 0
-196 -2304 2305 0
-2305 2315 0
-197 -2305 2306 0
-2306 2316 0
-198 -2306 2307 0
-2307 2317 0
-199 -2307 0
-190 2308 0
-2308 2318 0
-191 -2308 2309 0
-2309 2319 0
-192 -2309 2310 0
-2310 2320 0
-193 -2310 2311 0
-2311 2321 0
-194 -2311 2312 0
-2312 2322 0
-195 -2312 2313 0
-2313 2323 0
-196 -2313 2314 0
-2314 2324 0
-197 -2314 2315 0
-2315 2325 0
-198 -2315 2316 0
-2316 2326 0
-199 -2316 2317 0
-2317 2327 0
-200 -2317 0
-191 2318 0
-2318 2328 0
-192 -2318 2319 0
-2319 2329 0
-193 -2319 2320 0
-2320 2330 0
-194 -2320 2321 0
-2321 2331 0
-195 -2321 2322 0
-2322 2332 0
-196 -2322 2323 0
-2323 2333 0
-197 -2323 2324 0
-2324 2334 0
-198 -2324 2325 0
-2325 2335 0
-199 -2325 2326 0
-2326 2336 0
-200 -2326 2327 0
-2327 2337 0
-201 -2327 0
-192 2328 0
-2328 2338 0
-193 -2328 2329 0
-2329 2339 0
-194 -2329 2330 0
-2330 2340 0
-195 -2330 2331 0
-2331 2341 0
-196 -2331 2332 0
-2332 2342 0
-197 -2332 2333 0
-2333 2343 0
-198 -2333 2334 0
-2334 2344 0
-199 -2334 2335 0
-2335 2345 0
-200 -2335 2336 0
-2336 2346 0
-201 -2336 2337 0
-2337 2347 0
-202 -2337 0
-193 2338 0
-2338 2348 0
-194 -2338 2339 0
-2339 2349 0
-195 -2339 2340 0
-2340 2350 0
-196 -2340 2341 0
-2341 2351 0
-197 -2341 2342 0
-2342 2352 0
-198 -2342 2343 0
-2343 2353 0
-199 -2343 2344 0
-2344 2354 0
-200 -2344 2345 0
-2345 2355 0
-201 -2345 2346 0
-2346 2356 0
-202 -2346 2347 0
-2347 2357 0
-203 -2347 0
-194 2348 0
-2348 2358 0
-195 -2348 2349 0
-2349 2359 0
-196 -2349 2350 0
-2350 2360 0
-197 -2350 2351 0
-2351 2361 0
-198 -2351 2352 0
-2352 2362 0
-199 -2352 2353 0
-2353 2363 0
-200 -2353 2354 0
-2354 2364 0
-201 -2354 2355 0
-2355 2365 0
-202 -2355 2356 0
-2356 2366 0
-203 -2356 2357 0
-2357 2367 0
-204 -2357 0
-195 2358 0
-2358 2368 0
-196 -2358 2359 0
-2359 2369 0
-197 -2359 2360 0
-2360 2370 0
-198 -2360 2361 0
-2361 2371 0
-199 -2361 2362 0
-2362 2372 0
-200 -2362 2363 0
-2363 2373 0
-201 -2363 2364 0
-2364 2374 0
-202 -2364 2365 0
-2365 2375 0
-203 -2365 2366 0
-2366 2376 0
-204 -2366 2367 0
-2367 2377 0
-205 -2367 0
-196 2368 0
-2368 2378 0
-197 -2368 2369 0
-2369 2379 0
-198 -2369 2370 0
-2370 2380 0
-199 -2370 2371 0
-2371 2381 0
-200 -2371 2372 0
-2372 2382 0
-201 -2372 2373 0
-2373 2383 0
-202 -2373 2374 0
-2374 2384 0
-203 -2374 2375 0
-2375 2385 0
-204 -2375 2376 0
-2376 2386 0
-205 -2376 2377 0
-2377 2387 0
-206 -2377 0
-197 2378 0
-2378 2388 0
-198 -2378 2379 0
-2379 2389 0
-199 -2379 2380 0
-2380 2390 0
-200 -2380 2381 0
-2381 2391 0
-201 -2381 2382 0
-2382 2392 0
-202 -2382 2383 0
-2383 2393 0
-203 -2383 2384 0
-2384 2394 0
-204 -2384 2385 0
-2385 2395 0
-205 -2385 2386 0
-2386 2396 0
-206 -2386 2387 0
-2387 2397 0
-207 -2387 0
-198 2388 0
-2388 2398 0
-199 -2388 2389 0
-2389 2399 0
-200 -2389 2390 0
-2390 2400 0
-201 -2390 2391 0
-2391 2401 0
-202 -2391 2392 0
-2392 2402 0
-203 -2392 2393 0
-2393 2403 0
-204 -2393 2394 0
-2394 2404 0
-205 -2394 2395 0
-2395 2405 0
-206 -2395 2396 0
-2396 2406 0
-207 -2396 2397 0
-2397 2407 0
-208 -2397 0
-199 2398 0
-2398 2408 0
-200 -2398 2399 0
-2399 2409 0
-201 -2399 2400 0
-2400 2410 0
-202 -2400 2401 0
-2401 2411 0
-203 -2401 2402 0
-2402 2412 0
-204 -2402 2403 0
-2403 2413 0
-205 -2403 2404 0
-2404 2414 0
-206 -2404 2405 0
-2405 2415 0
-207 -2405 2406 0
-2406 2416 0
-208 -2406 2407 0
-2407 2417 0
-209 -2407 0
-200 2408 0
-2408 2418 0
-201 -2408 2409 0
-2409 2419 0
-202 -2409 2410 0
-2410 2420 0
-203 -2410 2411 0
-2411 2421 0
-204 -2411 2412 0
-2412 2422 0
-205 -2412 2413 0
-2413 2423 0
-206 -2413 2414 0
-2414 2424 0
-207 -2414 2415 0
-2415 2425 0
-208 -2415 2416 0
-2416 2426 0
-209 -2416 2417 0
-2417 2427 0
-210 -2417 0
-201 2418 0
-2418 2428 0
-202 -2418 2419 0
-2419 2429 0
-203 -2419 2420 0
-2420 2430 0
-204 -2420 2421 0
-2421 2431 0
-205 -2421 2422 0
-2422 2432 0
-206 -2422 2423 0
-2423 2433 0
-207 -2423 2424 0
-2424 2434 0
-208 -2424 2425 0
-2425 2435 0
-209 -2425 2426 0
-2426 2436 0
-210 -2426 2427 0
-2427 2437 0
-211 -2427 0
-202 2428 0
-2428 2438 0
-203 -2428 2429 0
-2429 2439 0
-204 -2429 2430 0
-2430 2440 0
-205 -2430 2431 0
-2431 2441 0
-206 -2431 2432 0
-2432 2442 0
-207 -2432 2433 0
-2433 2443 0
-208 -2433 2434 0
-2434 2444 0
-209 -2434 2435 0
-2435 2445 0
-210 -2435 2436 0
-2436 2446 0
-211 -2436 2437 0
-2437 2447 0
-212 -2437 0
-203 2438 0
-2438 2448 0
-204 -2438 2439 0
-2439 2449 0
-205 -2439 2440 0
-2440 2450 0
-206 -2440 2441 0
-2441 2451 0
-207 -2441 2442 0
-2442 2452 0
-208 -2442 2443 0
-2443 2453 0
-209 -2443 2444 0
-2444 2454 0
-210 -2444 2445 0
-2445 2455 0
-211 -2445 2446 0
-2446 2456 0
-212 -2446 2447 0
-2447 2457 0
-213 -2447 0
-204 2448 0
-2448 2458 0
-205 -2448 2449 0
-2449 2459 0
-206 -2449 2450 0
-2450 2460 0
-207 -2450 2451 0
-2451 2461 0
-208 -2451 2452 0
-2452 2462 0
-209 -2452 2453 0
-2453 2463 0
-210 -2453 2454 0
-2454 2464 0
-211 -2454 2455 0
-2455 2465 0
-212 -2455 2456 0
-2456 2466 0
-213 -2456 2457 0
-2457 2467 0
-214 -2457 0
-205 2458 0
-2458 2468 0
-206 -2458 2459 0
-2459 2469 0
-207 -2459 2460 0
-2460 2470 0
-208 -2460 2461 0
-2461 2471 0
-209 -2461 2462 0
-2462 2472 0
-210 -2462 2463 0
-2463 2473 0
-211 -2463 2464 0
-2464 2474 0
-212 -2464 2465 0
-2465 2475 0
-213 -2465 2466 0
-2466 2476 0
-214 -2466 2467 0
-2467 2477 0
-215 -2467 0
-206 2468 0
-2468 2478 0
-207 -2468 2469 0
-2469 2479 0
-208 -2469 2470 0
-2470 2480 0
-209 -2470 2471 0
-2471 2481 0
-210 -2471 2472 0
-2472 2482 0
-211 -2472 2473 0
-2473 2483 0
-212 -2473 2474 0
-2474 2484 0
-213 -2474 2475 0
-2475 2485 0
-214 -2475 2476 0
-2476 2486 0
-215 -2476 2477 0
-2477 2487 0
-216 -2477 0
-207 2478 0
-2478 2488 0
-208 -2478 2479 0
-2479 2489 0
-209 -2479 2480 0
-2480 2490 0
-210 -2480 2481 0
-2481 2491 0
-211 -2481 2482 0
-2482 2492 0
-212 -2482 2483 0
-2483 2493 0
-213 -2483 2484 0
-2484 2494 0
-214 -2484 2485 0
-2485 2495 0
-215 -2485 2486 0
-2486 2496 0
-216 -2486 2487 0
-2487 2497 0
-217 -2487 0
-208 2488 0
-2488 2498 0
-209 -2488 2489 0
-2489 2499 0
-210 -2489 2490 0
-2490 2500 0
-211 -2490 2491 0
-2491 2501 0
-212 -2491 2492 0
-2492 2502 0
-213 -2492 2493 0
-2493 2503 0
-214 -2493 2494 0
-2494 2504 0
-215 -2494 2495 0
-2495 2505 0
-216 -2495 2496 0
-2496 2506 0
-217 -2496 2497 0
-2497 2507 0
-218 -2497 0
-209 2498 0
-2498 2508 0
-210 -2498 2499 0
-2499 2509 0
-211 -2499 2500 0
-2500 2510 0
-212 -2500 2501 0
-2501 2511 0
-213 -2501 2502 0
-2502 2512 0
-214 -2502 2503 0
-2503 2513 0
-215 -2503 2504 0
-2504 2514 0
-216 -2504 2505 0
-2505 2515 0
-217 -2505 2506 0
-2506 2516 0
-218 -2506 2507 0
-2507 2517 0
-219 -2507 0
-210 2508 0
-2508 2518 0
-211 -2508 2509 0
-2509 2519 0
-212 -2509 2510 0
-2510 2520 0
-213 -2510 2511 0
-2511 2521 0
-214 -2511 2512 0
-2512 2522 0
-215 -2512 2513 0
-2513 2523 0
-216 -2513 2514 0
-2514 2524 0
-217 -2514 2515 0
-2515 2525 0
-218 -2515 2516 0
-2516 2526 0
-219 -2516 2517 0
-2517 2527 0
-220 -2517 0
-211 2518 0
-2518 2528 0
-212 -2518 2519 0
-2519 2529 0
-213 -2519 2520 0
-2520 2530 0
-214 -2520 2521 0
-2521 2531 0
-215 -2521 2522 0
-2522 2532 0
-216 -2522 2523 0
-2523 2533 0
-217 -2523 2524 0
-2524 2534 0
-218 -2524 2525 0
-2525 2535 0
-219 -2525 2526 0
-2526 2536 0
-220 -2526 2527 0
-2527 2537 0
-221 -2527 0
-212 2528 0
-2528 2538 0
-213 -2528 2529 0
-2529 2539 0
-214 -2529 2530 0
-2530 2540 0
-215 -2530 2531 0
-2531 2541 0
-216 -2531 2532 0
-2532 2542 0
-217 -2532 2533 0
-2533 2543 0
-218 -2533 2534 0
-2534 2544 0
-219 -2534 2535 0
-2535 2545 0
-220 -2535 2536 0
-2536 2546 0
-221 -2536 2537 0
-2537 2547 0
-222 -2537 0
-213 2538 0
-2538 2548 0
-214 -2538 2539 0
-2539 2549 0
-215 -2539 2540 0
-2540 2550 0
-216 -2540 2541 0
-2541 2551 0
-217 -2541 2542 0
-2542 2552 0
-218 -2542 2543 0
-2543 2553 0
-219 -2543 2544 0
-2544 2554 0
-220 -2544 2545 0
-2545 2555 0
-221 -2545 2546 0
-2546 2556 0
-222 -2546 2547 0
-2547 2557 0
-223 -2547 0
-214 2548 0
-2548 2558 0
-215 -2548 2549 0
-2549 2559 0
-216 -2549 2550 0
-2550 2560 0
-217 -2550 2551 0
-2551 2561 0
-218 -2551 2552 0
-2552 2562 0
-219 -2552 2553 0
-2553 2563 0
-220 -2553 2554 0
-2554 2564 0
-221 -2554 2555 0
-2555 2565 0
-222 -2555 2556 0
-2556 2566 0
-223 -2556 2557 0
-2557 2567 0
-224 -2557 0
-215 2558 0
-2558 2568 0
-216 -2558 2559 0
-2559 2569 0
-217 -2559 2560 0
-2560 2570 0
-218 -2560 2561 0
-2561 2571 0
-219 -2561 2562 0
-2562 2572 0
-220 -2562 2563 0
-2563 2573 0
-221 -2563 2564 0
-2564 2574 0
-222 -2564 2565 0
-2565 2575 0
-223 -2565 2566 0
-2566 2576 0
-224 -2566 2567 0
-2567 2577 0
-225 -2567 0
-216 2568 0
-2568 2578 0
-217 -2568 2569 0
-2569 2579 0
-218 -2569 2570 0
-2570 2580 0
-219 -2570 2571 0
-2571 2581 0
-220 -2571 2572 0
-2572 2582 0
-221 -2572 2573 0
-2573 2583 0
-222 -2573 2574 0
-2574 2584 0
-223 -2574 2575 0
-2575 2585 0
-224 -2575 2576 0
-2576 2586 0
-225 -2576 2577 0
-2577 2587 0
-226 -2577 0
-217 2578 0
-2578 2588 0
-218 -2578 2579 0
-2579 2589 0
-219 -2579 2580 0
-2580 2590 0
-220 -2580 2581 0
-2581 2591 0
-221 -2581 2582 0
-2582 2592 0
-222 -2582 2583 0
-2583 2593 0
-223 -2583 2584 0
-2584 2594 0
-224 -2584 2585 0
-2585 2595 0
-225 -2585 2586 0
-2586 2596 0
-226 -2586 2587 0
-2587 2597 0
-227 -2587 0
-218 2588 0
-2588 2598 0
-219 -2588 2589 0
-2589 2599 0
-220 -2589 2590 0
-2590 2600 0
-221 -2590 2591 0
-2591 2601 0
-222 -2591 2592 0
-2592 2602 0
-223 -2592 2593 0
-2593 2603 0
-224 -2593 2594 0
-2594 2604 0
-225 -2594 2595 0
-2595 2605 0
-226 -2595 2596 0
-2596 2606 0
-227 -2596 2597 0
-2597 2607 0
-228 -2597 0
-219 2598 0
-2598 2608 0
-220 -2598 2599 0
-2599 2609 0
-221 -2599 2600 0
-2600 2610 0
-222 -2600 2601 0
-2601 2611 0
-223 -2601 2602 0
-2602 2612 0
-224 -2602 2603 0
-2603 2613 0
-225 -2603 2604 0
-2604 2614 0
-226 -2604 2605 0
-2605 2615 0
-227 -2605 2606 0
-2606 2616 0
-228 -2606 2607 0
-2607 2617 0
-229 -2607 0
-220 2608 0
-2608 2618 0
-221 -2608 2609 0
-2609 2619 0
-222 -2609 2610 0
-2610 2620 0
-223 -2610 2611 0
-2611 2621 0
-224 -2611 2612 0
-2612 2622 0
-225 -2612 2613 0
-2613 2623 0
-226 -2613 2614 0
-2614 2624 0
-227 -2614 2615 0
-2615 2625 0
-228 -2615 2616 0
-2616 2626 0
-229 -2616 2617 0
-2617 2627 0
-230 -2617 0
-221 2618 0
-2618 2628 0
-222 -2618 2619 0
-2619 2629 0
-223 -2619 2620 0
-2620 2630 0
-224 -2620 2621 0
-2621 2631 0
-225 -2621 2622 0
-2622 2632 0
-226 -2622 2623 0
-2623 2633 0
-227 -2623 2624 0
-2624 2634 0
-228 -2624 2625 0
-2625 2635 0
-229 -2625 2626 0
-2626 2636 0
-230 -2626 2627 0
-2627 2637 0
-231 -2627 0
-222 2628 0
-2628 2638 0
-223 -2628 2629 0
-2629 2639 0
-224 -2629 2630 0
-2630 2640 0
-225 -2630 2631 0
-2631 2641 0
-226 -2631 2632 0
-2632 2642 0
-227 -2632 2633 0
-2633 2643 0
-228 -2633 2634 0
-2634 2644 0
-229 -2634 2635 0
-2635 2645 0
-230 -2635 2636 0
-2636 2646 0
-231 -2636 2637 0
-2637 2647 0
-232 -2637 0
-223 2638 0
-2638 2648 0
-224 -2638 2639 0
-2639 2649 0
-225 -2639 2640 0
-2640 2650 0
-226 -2640 2641 0
-2641 2651 0
-227 -2641 2642 0
-2642 2652 0
-228 -2642 2643 0
-2643 2653 0
-229 -2643 2644 0
-2644 2654 0
-230 -2644 2645 0
-2645 2655 0
-231 -2645 2646 0
-2646 2656 0
-232 -2646 2647 0
-2647 2657 0
-233 -2647 0
-224 2648 0
-2648 2658 0
-225 -2648 2649 0
-2649 2659 0
-226 -2649 2650 0
-2650 2660 0
-227 -2650 2651 0
-2651 2661 0
-228 -2651 2652 0
-2652 2662 0
-229 -2652 2653 0
-2653 2663 0
-230 -2653 2654 0
-2654 2664 0
-231 -2654 2655 0
-2655 2665 0
-232 -2655 2656 0
-2656 2666 0
-233 -2656 2657 0
-2657 2667 0
-234 -2657 0
-225 2658 0
-2658 2668 0
-226 -2658 2659 0
-2659 2669 0
-227 -2659 2660 0
-2660 2670 0
-228 -2660 2661 0
-2661 2671 0
-229 -2661 2662 0
-2662 2672 0
-230 -2662 2663 0
-2663 2673 0
-231 -2663 2664 0
-2664 2674 0
-232 -2664 2665 0
-2665 2675 0
-233 -2665 2666 0
-2666 2676 0
-234 -2666 2667 0
-2667 2677 0
-235 -2667 0
-226 2668 0
-2668 2678 0
-227 -2668 2669 0
-2669 2679 0
-228 -2669 2670 0
-2670 2680 0
-229 -2670 2671 0
-2671 2681 0
-230 -2671 2672 0
-2672 2682 0
-231 -2672 2673 0
-2673 2683 0
-232 -2673 2674 0
-2674 2684 0
-233 -2674 2675 0
-2675 2685 0
-234 -2675 2676 0
-2676 2686 0
-235 -2676 2677 0
-2677 2687 0
-236 -2677 0
-227 2678 0
-2678 2688 0
-228 -2678 2679 0
-2679 2689 0
-229 -2679 2680 0
-2680 2690 0
-230 -2680 2681 0
-2681 2691 0
-231 -2681 2682 0
-2682 2692 0
-232 -2682 2683 0
-2683 2693 0
-233 -2683 2684 0
-2684 2694 0
-234 -2684 2685 0
-2685 2695 0
-235 -2685 2686 0
-2686 2696 0
-236 -2686 2687 0
-2687 2697 0
-237 -2687 0
-228 2688 0
-2688 2698 0
-229 -2688 2689 0
-2689 2699 0
-230 -2689 2690 0
-2690 2700 0
-231 -2690 2691 0
-2691 2701 0
-232 -2691 2692 0
-2692 2702 0
-233 -2692 2693 0
-2693 2703 0
-234 -2693 2694 0
-2694 2704 0
-235 -2694 2695 0
-2695 2705 0
-236 -2695 2696 0
-2696 2706 0
-237 -2696 2697 0
-2697 2707 0
-238 -2697 0
-229 2698 0
-2698 2708 0
-230 -2698 2699 0
-2699 2709 0
-231 -2699 2700 0
-2700 2710 0
-232 -2700 2701 0
-2701 2711 0
-233 -2701 2702 0
-2702 2712 0
-234 -2702 2703 0
-2703 2713 0
-235 -2703 2704 0
-2704 2714 0
-236 -2704 2705 0
-2705 2715 0
-237 -2705 2706 0
-2706 2716 0
-238 -2706 2707 0
-2707 2717 0
-239 -2707 0
-230 2708 0
-2708 2718 0
-231 -2708 2709 0
-2709 2719 0
-232 -2709 2710 0
-2710 2720 0
-233 -2710 2711 0
-2711 2721 0
-234 -2711 2712 0
-2712 2722 0
-235 -2712 2713 0
-2713 2723 0
-236 -2713 2714 0
-2714 2724 0
-237 -2714 2715 0
-2715 2725 0
-238 -2715 2716 0
-2716 2726 0
-239 -2716 2717 0
-2717 2727 0
-240 -2717 0
-231 2718 0
-2718 2728 0
-232 -2718 2719 0
-2719 2729 0
-233 -2719 2720 0
-2720 2730 0
-234 -2720 2721 0
-2721 2731 0
-235 -2721 2722 0
-2722 2732 0
-236 -2722 2723 0
-2723 2733 0
-237 -2723 2724 0
-2724 2734 0
-238 -2724 2725 0
-2725 2735 0
-239 -2725 2726 0
-2726 2736 0
-240 -2726 2727 0
-2727 2737 0
-241 -2727 0
-232 2728 0
-2728 2738 0
-233 -2728 2729 0
-2729 2739 0
-234 -2729 2730 0
-2730 2740 0
-235 -2730 2731 0
-2731 2741 0
-236 -2731 2732 0
-2732 2742 0
-237 -2732 2733 0
-2733 2743 0
-238 -2733 2734 0
-2734 2744 0
-239 -2734 2735 0
-2735 2745 0
-240 -2735 2736 0
-2736 2746 0
-241 -2736 2737 0
-2737 2747 0
-242 -2737 0
-233 2738 0
-2738 2748 0
-234 -2738 2739 0
-2739 2749 0
-235 -2739 2740 0
-2740 2750 0
-236 -2740 2741 0
-2741 2751 0
-237 -2741 2742 0
-2742 2752 0
-238 -2742 2743 0
-2743 2753 0
-239 -2743 2744 0
-2744 2754 0
-240 -2744 2745 0
-2745 2755 0
-241 -2745 2746 0
-2746 2756 0
-242 -2746 2747 0
-2747 2757 0
-243 -2747 0
-234 2748 0
-2748 2758 0
-235 -2748 2749 0
-2749 2759 0
-236 -2749 2750 0
-2750 2760 0
-237 -2750 2751 0
-2751 2761 0
-238 -2751 2752 0
-2752 2762 0
-239 -2752 2753 0
-2753 2763 0
-240 -2753 2754 0
-2754 2764 0
-241 -2754 2755 0
-2755 2765 0
-242 -2755 2756 0
-2756 2766 0
-243 -2756 2757 0
-2757 2767 0
-244 -2757 0
-235 2758 0
-2758 2768 0
-236 -2758 2759 0
-2759 2769 0
-237 -2759 2760 0
-2760 2770 0
-238 -2760 2761 0
-2761 2771 0
-239 -2761 2762 0
-2762 2772 0
-240 -2762 2763 0
-2763 2773 0
-241 -2763 2764 0
-2764 2774 0
-242 -2764 2765 0
-2765 2775 0
-243 -2765 2766 0
-2766 2776 0
-244 -2766 2767 0
-2767 2777 0
-245 -2767 0
-236 2768 0
-2768 2778 0
-237 -2768 2769 0
-2769 2779 0
-238 -2769 2770 0
-2770 2780 0
-239 -2770 2771 0
-2771 2781 0
-240 -2771 2772 0
-2772 2782 0
-241 -2772 2773 0
-2773 2783 0
-242 -2773 2774 0
-2774 2784 0
-243 -2774 2775 0
-2775 2785 0
-244 -2775 2776 0
-2776 2786 0
-245 -2776 2777 0
-2777 2787 0
-246 -2777 0
-237 2778 0
-2778 2788 0
-238 -2778 2779 0
-2779 2789 0
-239 -2779 2780 0
-2780 2790 0
-240 -2780 2781 0
-2781 2791 0
-241 -2781 2782 0
-2782 2792 0
-242 -2782 2783 0
-2783 2793 0
-243 -2783 2784 0
-2784 2794 0
-244 -2784 2785 0
-2785 2795 0
-245 -2785 2786 0
-2786 2796 0
-246 -2786 2787 0
-2787 2797 0
-247 -2787 0
-238 2788 0
-2788 2798 0
-239 -2788 2789 0
-2789 2799 0
-240 -2789 2790 0
-2790 2800 0
-241 -2790 2791 0
-2791 2801 0
-242 -2791 2792 0
-2792 2802 0
-243 -2792 2793 0
-2793 2803 0
-244 -2793 2794 0
-2794 2804 0
-245 -2794 2795 0
-2795 2805 0
-246 -2795 2796 0
-2796 2806 0
-247 -2796 2797 0
-2797 2807 0
-248 -2797 0
-239 2798 0
-2798 2808 0
-240 -2798 2799 0
-2799 2809 0
-241 -2799 2800 0
-2800 2810 0
-242 -2800 2801 0
-2801 2811 0
-243 -2801 2802 0
-2802 2812 0
-244 -2802 2803 0
-2803 2813 0
-245 -2803 2804 0
-2804 2814 0
-246 -2804 2805 0
-2805 2815 0
-247 -2805 2806 0
-2806 2816 0
-248 -2806 2807 0
-2807 2817 0
-249 -2807 0
-240 2808 0
-2808 2818 0
-241 -2808 2809 0
-2809 2819 0
-242 -2809 2810 0
-2810 2820 0
-243 -2810 2811 0
-2811 2821 0
-244 -2811 2812 0
-2812 2822 0
-245 -2812 2813 0
-2813 2823 0
-246 -2813 2814 0
-2814 2824 0
-247 -2814 2815 0
-2815 2825 0
-248 -2815 2816 0
-2816 2826 0
-249 -2816 2817 0
-2817 2827 0
-250 -2817 0
-241 2818 0
-2818 2828 0
-242 -2818 2819 0
-2819 2829 0
-243 -2819 2820 0
-2820 2830 0
-244 -2820 2821 0
-2821 2831 0
-245 -2821 2822 0
-2822 2832 0
-246 -2822 2823 0
-2823 2833 0
-247 -2823 2824 0
-2824 2834 0
-248 -2824 2825 0
-2825 2835 0
-249 -2825 2826 0
-2826 2836 0
-250 -2826 2827 0
-2827 2837 0
-251 -2827 0
-242 2828 0
-2828 2838 0
-243 -2828 2829 0
-2829 2839 0
-244 -2829 2830 0
-2830 2840 0
-245 -2830 2831 0
-2831 2841 0
-246 -2831 2832 0
-2832 2842 0
-247 -2832 2833 0
-2833 2843 0
-248 -2833 2834 0
-2834 2844 0
-249 -2834 2835 0
-2835 2845 0
-250 -2835 2836 0
-2836 2846 0
-251 -2836 2837 0
-2837 2847 0
-252 -2837 0
-243 2838 0
-2838 2848 0
-244 -2838 2839 0
-2839 2849 0
-245 -2839 2840 0
-2840 2850 0
-246 -2840 2841 0
-2841 2851 0
-247 -2841 2842 0
-2842 2852 0
-248 -2842 2843 0
-2843 2853 0
-249 -2843 2844 0
-2844 2854 0
-250 -2844 2845 0
-2845 2855 0
-251 -2845 2846 0
-2846 2856 0
-252 -2846 2847 0
-2847 2857 0
-253 -2847 0
-244 2848 0
-2848 2858 0
-245 -2848 2849 0
-2849 2859 0
-246 -2849 2850 0
-2850 2860 0
-247 -2850 2851 0
-2851 2861 0
-248 -2851 2852 0
-2852 2862 0
-249 -2852 2853 0
-2853 2863 0
-250 -2853 2854 0
-2854 2864 0
-251 -2854 2855 0
-2855 2865 0
-252 -2855 2856 0
-2856 2866 0
-253 -2856 2857 0
-2857 2867 0
-254 -2857 0
-245 2858 0
-2858 2868 0
-246 -2858 2859 0
-2859 2869 0
-247 -2859 2860 0
-2860 2870 0
-248 -2860 2861 0
-2861 2871 0
-249 -2861 2862 0
-2862 2872 0
-250 -2862 2863 0
-2863 2873 0
-251 -2863 2864 0
-2864 2874 0
-252 -2864 2865 0
-2865 2875 0
-253 -2865 2866 0
-2866 2876 0
-254 -2866 2867 0
-2867 2877 0
-255 -2867 0
-246 2868 0
-2868 2878 0
-247 -2868 2869 0
-2869 2879 0
-248 -2869 2870 0
-2870 2880 0
-249 -2870 2871 0
-2871 2881 0
-250 -2871 2872 0
-2872 2882 0
-251 -2872 2873 0
-2873 2883 0
-252 -2873 2874 0
-2874 2884 0
-253 -2874 2875 0
-2875 2885 0
-254 -2875 2876 0
-2876 2886 0
-255 -2876 2877 0
-2877 2887 0
-256 -2877 0
-247 2878 0
-2878 2888 0
-248 -2878 2879 0
-2879 2889 0
-249 -2879 2880 0
-2880 2890 0
-250 -2880 2881 0
-2881 2891 0
-251 -2881 2882 0
-2882 2892 0
-252 -2882 2883 0
-2883 2893 0
-253 -2883 2884 0
-2884 2894 0
-254 -2884 2885 0
-2885 2895 0
-255 -2885 2886 0
-2886 2896 0
-256 -2886 2887 0
-2887 2897 0
-257 -2887 0
-248 2888 0
-2888 2898 0
-249 -2888 2889 0
-2889 2899 0
-250 -2889 2890 0
-2890 2900 0
-251 -2890 2891 0
-2891 2901 0
-252 -2891 2892 0
-2892 2902 0
-253 -2892 2893 0
-2893 2903 0
-254 -2893 2894 0
-2894 2904 0
-255 -2894 2895 0
-2895 2905 0
-256 -2895 2896 0
-2896 2906 0
-257 -2896 2897 0
-2897 2907 0
-258 -2897 0
-249 2898 0
-2898 2908 0
-250 -2898 2899 0
-2899 2909 0
-251 -2899 2900 0
-2900 2910 0
-252 -2900 2901 0
-2901 2911 0
-253 -2901 2902 0
-2902 2912 0
-254 -2902 2903 0
-2903 2913 0
-255 -2903 2904 0
-2904 2914 0
-256 -2904 2905 0
-2905 2915 0
-257 -2905 2906 0
-2906 2916 0
-258 -2906 2907 0
-2907 2917 0
-259 -2907 0
-250 2908 0
-2908 2918 0
-251 -2908 2909 0
-2909 2919 0
-252 -2909 2910 0
-2910 2920 0
-253 -2910 2911 0
-2911 2921 0
-254 -2911 2912 0
-2912 2922 0
-255 -2912 2913 0
-2913 2923 0
-256 -2913 2914 0
-2914 2924 0
-257 -2914 2915 0
-2915 2925 0
-258 -2915 2916 0
-2916 2926 0
-259 -2916 2917 0
-2917 2927 0
-260 -2917 0
-251 2918 0
-2918 2928 0
-252 -2918 2919 0
-2919 2929 0
-253 -2919 2920 0
-2920 2930 0
-254 -2920 2921 0
-2921 2931 0
-255 -2921 2922 0
-2922 2932 0
-256 -2922 2923 0
-2923 2933 0
-257 -2923 2924 0
-2924 2934 0
-258 -2924 2925 0
-2925 2935 0
-259 -2925 2926 0
-2926 2936 0
-260 -2926 2927 0
-2927 2937 0
-261 -2927 0
-252 2928 0
-2928 2938 0
-253 -2928 2929 0
-2929 2939 0
-254 -2929 2930 0
-2930 2940 0
-255 -2930 2931 0
-2931 2941 0
-256 -2931 2932 0
-2932 2942 0
-257 -2932 2933 0
-2933 2943 0
-258 -2933 2934 0
-2934 2944 0
-259 -2934 2935 0
-2935 2945 0
-260 -2935 2936 0
-2936 2946 0
-261 -2936 2937 0
-2937 2947 0
-262 -2937 0
-253 2938 0
-2938 2948 0
-254 -2938 2939 0
-2939 2949 0
-255 -2939 2940 0
-2940 2950 0
-256 -2940 2941 0
-2941 2951 0
-257 -2941 2942 0
-2942 2952 0
-258 -2942 2943 0
-2943 2953 0
-259 -2943 2944 0
-2944 2954 0
-260 -2944 2945 0
-2945 2955 0
-261 -2945 2946 0
-2946 2956 0
-262 -2946 2947 0
-2947 2957 0
-263 -2947 0
-254 2948 0
-2948 2958 0
-255 -2948 2949 0
-2949 2959 0
-256 -2949 2950 0
-2950 2960 0
-257 -2950 2951 0
-2951 2961 0
-258 -2951 2952 0
-2952 2962 0
-259 -2952 2953 0
-2953 2963 0
-260 -2953 2954 0
-2954 2964 0
-261 -2954 2955 0
-2955 2965 0
-262 -2955 2956 0
-2956 2966 0
-263 -2956 2957 0
-2957 2967 0
-264 -2957 0
-255 2958 0
-2958 2968 0
-256 -2958 2959 0
-2959 2969 0
-257 -2959 2960 0
-2960 2970 0
-258 -2960 2961 0
-2961 2971 0
-259 -2961 2962 0
-2962 2972 0
-260 -2962 2963 0
-2963 2973 0
-261 -2963 2964 0
-2964 2974 0
-262 -2964 2965 0
-2965 2975 0
-263 -2965 2966 0
-2966 2976 0
-264 -2966 2967 0
-2967 2977 0
-265 -2967 0
-256 2968 0
-2968 2978 0
-257 -2968 2969 0
-2969 2979 0
-258 -2969 2970 0
-2970 2980 0
-259 -2970 2971 0
-2971 2981 0
-260 -2971 2972 0
-2972 2982 0
-261 -2972 2973 0
-2973 2983 0
-262 -2973 2974 0
-2974 2984 0
-263 -2974 2975 0
-2975 2985 0
-264 -2975 2976 0
-2976 2986 0
-265 -2976 2977 0
-2977 2987 0
-266 -2977 0
-257 2978 0
-2978 2988 0
-258 -2978 2979 0
-2979 2989 0
-259 -2979 2980 0
-2980 2990 0
-260 -2980 2981 0
-2981 2991 0
-261 -2981 2982 0
-2982 2992 0
-262 -2982 2983 0
-2983 2993 0
-263 -2983 2984 0
-2984 2994 0
-264 -2984 2985 0
-2985 2995 0
-265 -2985 2986 0
-2986 2996 0
-266 -2986 2987 0
-2987 2997 0
-267 -2987 0
-258 2988 0
-2988 2998 0
-259 -2988 2989 0
-2989 2999 0
-260 -2989 2990 0
-2990 3000 0
-261 -2990 2991 0
-2991 3001 0
-262 -2991 2992 0
-2992 3002 0
-263 -2992 2993 0
-2993 3003 0
-264 -2993 2994 0
-2994 3004 0
-265 -2994 2995 0
-2995 3005 0
-266 -2995 2996 0
-2996 3006 0
-267 -2996 2997 0
-2997 3007 0
-268 -2997 0
-259 2998 0
-2998 3008 0
-260 -2998 2999 0
-2999 3009 0
-261 -2999 3000 0
-3000 3010 0
-262 -3000 3001 0
-3001 3011 0
-263 -3001 3002 0
-3002 3012 0
-264 -3002 3003 0
-3003 3013 0
-265 -3003 3004 0
-3004 3014 0
-266 -3004 3005 0
-3005 3015 0
-267 -3005 3006 0
-3006 3016 0
-268 -3006 3007 0
-3007 3017 0
-269 -3007 0
-260 3008 0
-3008 3018 0
-261 -3008 3009 0
-3009 3019 0
-262 -3009 3010 0
-3010 3020 0
-263 -3010 3011 0
-3011 3021 0
-264 -3011 3012 0
-3012 3022 0
-265 -3012 3013 0
-3013 3023 0
-266 -3013 3014 0
-3014 3024 0
-267 -3014 3015 0
-3015 3025 0
-268 -3015 3016 0
-3016 3026 0
-269 -3016 3017 0
-3017 3027 0
-270 -3017 0
-261 3018 0
-3018 3028 0
-262 -3018 3019 0
-3019 3029 0
-263 -3019 3020 0
-3020 3030 0
-264 -3020 3021 0
-3021 3031 0
-265 -3021 3022 0
-3022 3032 0
-266 -3022 3023 0
-3023 3033 0
-267 -3023 3024 0
-3024 3034 0
-268 -3024 3025 0
-3025 3035 0
-269 -3025 3026 0
-3026 3036 0
-270 -3026 3027 0
-3027 3037 0
-271 -3027 0
-262 3028 0
-3028 3038 0
-263 -3028 3029 0
-3029 3039 0
-264 -3029 3030 0
-3030 3040 0
-265 -3030 3031 0
-3031 3041 0
-266 -3031 3032 0
-3032 3042 0
-267 -3032 3033 0
-3033 3043 0
-268 -3033 3034 0
-3034 3044 0
-269 -3034 3035 0
-3035 3045 0
-270 -3035 3036 0
-3036 3046 0
-271 -3036 3037 0
-3037 3047 0
-272 -3037 0
-263 3038 0
-3038 3048 0
-264 -3038 3039 0
-3039 3049 0
-265 -3039 3040 0
-3040 3050 0
-266 -3040 3041 0
-3041 3051 0
-267 -3041 3042 0
-3042 3052 0
-268 -3042 3043 0
-3043 3053 0
-269 -3043 3044 0
-3044 3054 0
-270 -3044 3045 0
-3045 3055 0
-271 -3045 3046 0
-3046 3056 0
-272 -3046 3047 0
-3047 3057 0
-273 -3047 0
-264 3048 0
-3048 3058 0
-265 -3048 3049 0
-3049 3059 0
-266 -3049 3050 0
-3050 3060 0
-267 -3050 3051 0
-3051 3061 0
-268 -3051 3052 0
-3052 3062 0
-269 -3052 3053 0
-3053 3063 0
-270 -3053 3054 0
-3054 3064 0
-271 -3054 3055 0
-3055 3065 0
-272 -3055 3056 0
-3056 3066 0
-273 -3056 3057 0
-3057 3067 0
-274 -3057 0
-265 3058 0
-3058 3068 0
-266 -3058 3059 0
-3059 3069 0
-267 -3059 3060 0
-3060 3070 0
-268 -3060 3061 0
-3061 3071 0
-269 -3061 3062 0
-3062 3072 0
-270 -3062 3063 0
-3063 3073 0
-271 -3063 3064 0
-3064 3074 0
-272 -3064 3065 0
-3065 3075 0
-273 -3065 3066 0
-3066 3076 0
-274 -3066 3067 0
-3067 3077 0
-275 -3067 0
-266 3068 0
-3068 3078 0
-267 -3068 3069 0
-3069 3079 0
-268 -3069 3070 0
-3070 3080 0
-269 -3070 3071 0
-3071 3081 0
-270 -3071 3072 0
-3072 3082 0
-271 -3072 3073 0
-3073 3083 0
-272 -3073 3074 0
-3074 3084 0
-273 -3074 3075 0
-3075 3085 0
-274 -3075 3076 0
-3076 3086 0
-275 -3076 3077 0
-3077 3087 0
-276 -3077 0
-267 3078 0
-3078 3088 0
-268 -3078 3079 0
-3079 3089 0
-269 -3079 3080 0
-3080 3090 0
-270 -3080 3081 0
-3081 3091 0
-271 -3081 3082 0
-3082 3092 0
-272 -3082 3083 0
-3083 3093 0
-273 -3083 3084 0
-3084 3094 0
-274 -3084 3085 0
-3085 3095 0
-275 -3085 3086 0
-3086 3096 0
-276 -3086 3087 0
-3087 3097 0
-277 -3087 0
-268 3088 0
-3088 3098 0
-269 -3088 3089 0
-3089 3099 0
-270 -3089 3090 0
-3090 3100 0
-271 -3090 3091 0
-3091 3101 0
-272 -3091 3092 0
-3092 3102 0
-273 -3092 3093 0
-3093 3103 0
-274 -3093 3094 0
-3094 3104 0
-275 -3094 3095 0
-3095 3105 0
-276 -3095 3096 0
-3096 3106 0
-277 -3096 3097 0
-3097 3107 0
-278 -3097 0
-269 3098 0
-3098 3108 0
-270 -3098 3099 0
-3099 3109 0
-271 -3099 3100 0
-3100 3110 0
-272 -3100 3101 0
-3101 3111 0
-273 -3101 3102 0
-3102 3112 0
-274 -3102 3103 0
-3103 3113 0
-275 -3103 3104 0
-3104 3114 0
-276 -3104 3105 0
-3105 3115 0
-277 -3105 3106 0
-3106 3116 0
-278 -3106 3107 0
-3107 3117 0
-279 -3107 0
-270 3108 0
-3108 3118 0
-271 -3108 3109 0
-3109 3119 0
-272 -3109 3110 0
-3110 3120 0
-273 -3110 3111 0
-3111 3121 0
-274 -3111 3112 0
-3112 3122 0
-275 -3112 3113 0
-3113 3123 0
-276 -3113 3114 0
-3114 3124 0
-277 -3114 3115 0
-3115 3125 0
-278 -3115 3116 0
-3116 3126 0
-279 -3116 3117 0
-3117 3127 0
-280 -3117 0
-271 3118 0
-3118 3128 0
-272 -3118 3119 0
-3119 3129 0
-273 -3119 3120 0
-3120 3130 0
-274 -3120 3121 0
-3121 3131 0
-275 -3121 3122 0
-3122 3132 0
-276 -3122 3123 0
-3123 3133 0
-277 -3123 3124 0
-3124 3134 0
-278 -3124 3125 0
-3125 3135 0
-279 -3125 3126 0
-3126 3136 0
-280 -3126 3127 0
-3127 3137 0
-281 -3127 0
-272 3128 0
-3128 3138 0
-273 -3128 3129 0
-3129 3139 0
-274 -3129 3130 0
-3130 3140 0
-275 -3130 3131 0
-3131 3141 0
-276 -3131 3132 0
-3132 3142 0
-277 -3132 3133 0
-3133 3143 0
-278 -3133 3134 0
-3134 3144 0
-279 -3134 3135 0
-3135 3145 0
-280 -3135 3136 0
-3136 3146 0
-281 -3136 3137 0
-3137 3147 0
-282 -3137 0
-273 3138 0
-3138 3148 0
-274 -3138 3139 0
-3139 3149 0
-275 -3139 3140 0
-3140 3150 0
-276 -3140 3141 0
-3141 3151 0
-277 -3141 3142 0
-3142 3152 0
-278 -3142 3143 0
-3143 3153 0
-279 -3143 3144 0
-3144 3154 0
-280 -3144 3145 0
-3145 3155 0
-281 -3145 3146 0
-3146 3156 0
-282 -3146 3147 0
-3147 3157 0
-283 -3147 0
-274 3148 0
-3148 3158 0
-275 -3148 3149 0
-3149 3159 0
-276 -3149 3150 0
-3150 3160 0
-277 -3150 3151 0
-3151 3161 0
-278 -3151 3152 0
-3152 3162 0
-279 -3152 3153 0
-3153 3163 0
-280 -3153 3154 0
-3154 3164 0
-281 -3154 3155 0
-3155 3165 0
-282 -3155 3156 0
-3156 3166 0
-283 -3156 3157 0
-3157 3167 0
-284 -3157 0
-275 3158 0
-3158 3168 0
-276 -3158 3159 0
-3159 3169 0
-277 -3159 3160 0
-3160 3170 0
-278 -3160 3161 0
-3161 3171 0
-279 -3161 3162 0
-3162 3172 0
-280 -3162 3163 0
-3163 3173 0
-281 -3163 3164 0
-3164 3174 0
-282 -3164 3165 0
-3165 3175 0
-283 -3165 3166 0
-3166 3176 0
-284 -3166 3167 0
-3167 3177 0
-285 -3167 0
-276 3168 0
-3168 3178 0
-277 -3168 3169 0
-3169 3179 0
-278 -3169 3170 0
-3170 3180 0
-279 -3170 3171 0
-3171 3181 0
-280 -3171 3172 0
-3172 3182 0
-281 -3172 3173 0
-3173 3183 0
-282 -3173 3174 0
-3174 3184 0
-283 -3174 3175 0
-3175 3185 0
-284 -3175 3176 0
-3176 3186 0
-285 -3176 3177 0
-3177 3187 0
-286 -3177 0
-277 3178 0
-3178 3188 0
-278 -3178 3179 0
-3179 3189 0
-279 -3179 3180 0
-3180 3190 0
-280 -3180 3181 0
-3181 3191 0
-281 -3181 3182 0
-3182 3192 0
-282 -3182 3183 0
-3183 3193 0
-283 -3183 3184 0
-3184 3194 0
-284 -3184 3185 0
-3185 3195 0
-285 -3185 3186 0
-3186 3196 0
-286 -3186 3187 0
-3187 3197 0
-287 -3187 0
-278 3188 0
-3188 3198 0
-279 -3188 3189 0
-3189 3199 0
-280 -3189 3190 0
-3190 3200 0
-281 -3190 3191 0
-3191 3201 0
-282 -3191 3192 0
-3192 3202 0
-283 -3192 3193 0
-3193 3203 0
-284 -3193 3194 0
-3194 3204 0
-285 -3194 3195 0
-3195 3205 0
-286 -3195 3196 0
-3196 3206 0
-287 -3196 3197 0
-3197 3207 0
-288 -3197 0
-279 3198 0
-3198 3208 0
-280 -3198 3199 0
-3199 3209 0
-281 -3199 3200 0
-3200 3210 0
-282 -3200 3201 0
-3201 3211 0
-283 -3201 3202 0
-3202 3212 0
-284 -3202 3203 0
-3203 3213 0
-285 -3203 3204 0
-3204 3214 0
-286 -3204 3205 0
-3205 3215 0
-287 -3205 3206 0
-3206 3216 0
-288 -3206 3207 0
-3207 3217 0
-289 -3207 0
-280 3208 0
-3208 3218 0
-281 -3208 3209 0
-3209 3219 0
-282 -3209 3210 0
-3210 3220 0
-283 -3210 3211 0
-3211 3221 0
-284 -3211 3212 0
-3212 3222 0
-285 -3212 3213 0
-3213 3223 0
-286 -3213 3214 0
-3214 3224 0
-287 -3214 3215 0
-3215 3225 0
-288 -3215 3216 0
-3216 3226 0
-289 -3216 3217 0
-3217 3227 0
-290 -3217 0
-281 3218 0
-3218 3228 0
-282 -3218 3219 0
-3219 3229 0
-283 -3219 3220 0
-3220 3230 0
-284 -3220 3221 0
-3221 3231 0
-285 -3221 3222 0
-3222 3232 0
-286 -3222 3223 0
-3223 3233 0
-287 -3223 3224 0
-3224 3234 0
-288 -3224 3225 0
-3225 3235 0
-289 -3225 3226 0
-3226 3236 0
-290 -3226 3227 0
-3227 3237 0
-291 -3227 0
-282 3228 0
-3228 3238 0
-283 -3228 3229 0
-3229 3239 0
-284 -3229 3230 0
-3230 3240 0
-285 -3230 3231 0
-3231 3241 0
-286 -3231 3232 0
-3232 3242 0
-287 -3232 3233 0
-3233 3243 0
-288 -3233 3234 0
-3234 3244 0
-289 -3234 3235 0
-3235 3245 0
-290 -3235 3236 0
-3236 3246 0
-291 -3236 3237 0
-3237 3247 0
-292 -3237 0
-283 3238 0
-3238 3248 0
-284 -3238 3239 0
-3239 3249 0
-285 -3239 3240 0
-3240 3250 0
-286 -3240 3241 0
-3241 3251 0
-287 -3241 3242 0
-3242 3252 0
-288 -3242 3243 0
-3243 3253 0
-289 -3243 3244 0
-3244 3254 0
-290 -3244 3245 0
-3245 3255 0
-291 -3245 3246 0
-3246 3256 0
-292 -3246 3247 0
-3247 3257 0
-293 -3247 0
-284 3248 0
-3248 3258 0
-285 -3248 3249 0
-3249 3259 0
-286 -3249 3250 0
-3250 3260 0
-287 -3250 3251 0
-3251 3261 0
-288 -3251 3252 0
-3252 3262 0
-289 -3252 3253 0
-3253 3263 0
-290 -3253 3254 0
-3254 3264 0
-291 -3254 3255 0
-3255 3265 0
-292 -3255 3256 0
-3256 3266 0
-293 -3256 3257 0
-3257 3267 0
-294 -3257 0
-285 3258 0
-3258 3268 0
-286 -3258 3259 0
-3259 3269 0
-287 -3259 3260 0
-3260 3270 0
-288 -3260 3261 0
-3261 3271 0
-289 -3261 3262 0
-3262 3272 0
-290 -3262 3263 0
-3263 3273 0
-291 -3263 3264 0
-3264 3274 0
-292 -3264 3265 0
-3265 3275 0
-293 -3265 3266 0
-3266 3276 0
-294 -3266 3267 0
-3267 3277 0
-295 -3267 0
-286 3268 0
-3268 3278 0
-287 -3268 3269 0
-3269 3279 0
-288 -3269 3270 0
-3270 3280 0
-289 -3270 3271 0
-3271 3281 0
-290 -3271 3272 0
-3272 3282 0
-291 -3272 3273 0
-3273 3283 0
-292 -3273 3274 0
-3274 3284 0
-293 -3274 3275 0
-3275 3285 0
-294 -3275 3276 0
-3276 3286 0
-295 -3276 3277 0
-3277 3287 0
-296 -3277 0
-287 3278 0
-3278 3288 0
-288 -3278 3279 0
-3279 3289 0
-289 -3279 3280 0
-3280 3290 0
-290 -3280 3281 0
-3281 3291 0
-291 -3281 3282 0
-3282 3292 0
-292 -3282 3283 0
-3283 3293 0
-293 -3283 3284 0
-3284 3294 0
-294 -3284 3285 0
-3285 3295 0
-295 -3285 3286 0
-3286 3296 0
-296 -3286 3287 0
-3287 3297 0
-297 -3287 0
-288 3288 0
-3288 3298 0
-289 -3288 3289 0
-3289 3299 0
-290 -3289 3290 0
-3290 3300 0
-291 -3290 3291 0
-3291 3301 0
-292 -3291 3292 0
-3292 3302 0
-293 -3292 3293 0
-3293 3303 0
-294 -3293 3294 0
-3294 3304 0
-295 -3294 3295 0
-3295 3305 0
-296 -3295 3296 0
-3296 3306 0
-297 -3296 3297 0
-3297 3307 0
-298 -3297 0
-289 3298 0
-3298 3308 0
-290 -3298 3299 0
-3299 3309 0
-291 -3299 3300 0
-3300 3310 0
-292 -3300 3301 0
-3301 3311 0
-293 -3301 3302 0
-3302 3312 0
-294 -3302 3303 0
-3303 3313 0
-295 -3303 3304 0
-3304 3314 0
-296 -3304 3305 0
-3305 3315 0
-297 -3305 3306 0
-3306 3316 0
-298 -3306 3307 0
-3307 3317 0
-299 -3307 0
-290 3308 0
-3308 3318 0
-291 -3308 3309 0
-3309 3319 0
-292 -3309 3310 0
-3310 3320 0
-293 -3310 3311 0
-3311 3321 0
-294 -3311 3312 0
-3312 3322 0
-295 -3312 3313 0
-3313 3323 0
-296 -3313 3314 0
-3314 3324 0
-297 -3314 3315 0
-3315 3325 0
-298 -3315 3316 0
-3316 3326 0
-299 -3316 3317 0
-3317 3327 0
-300 -3317 0
-291 3318 0
-3318 3328 0
-292 -3318 3319 0
-3319 3329 0
-293 -3319 3320 0
-3320 3330 0
-294 -3320 3321 0
-3321 3331 0
-295 -3321 3322 0
-3322 3332 0
-296 -3322 3323 0
-3323 3333 0
-297 -3323 3324 0
-3324 3334 0
-298 -3324 3325 0
-3325 3335 0
-299 -3325 3326 0
-3326 3336 0
-300 -3326 3327 0
-3327 3337 0
-301 -3327 0
-292 3328 0
-3328 3338 0
-293 -3328 3329 0
-3329 3339 0
-294 -3329 3330 0
-3330 3340 0
-295 -3330 3331 0
-3331 3341 0
-296 -3331 3332 0
-3332 3342 0
-297 -3332 3333 0
-3333 3343 0
-298 -3333 3334 0
-3334 3344 0
-299 -3334 3335 0
-3335 3345 0
-300 -3335 3336 0
-3336 3346 0
-301 -3336 3337 0
-3337 3347 0
-302 -3337 0
-293 3338 0
-3338 3348 0
-294 -3338 3339 0
-3339 3349 0
-295 -3339 3340 0
-3340 3350 0
-296 -3340 3341 0
-3341 3351 0
-297 -3341 3342 0
-3342 3352 0
-298 -3342 3343 0
-3343 3353 0
-299 -3343 3344 0
-3344 3354 0
-300 -3344 3345 0
-3345 3355 0
-301 -3345 3346 0
-3346 3356 0
-302 -3346 3347 0
-3347 3357 0
-303 -3347 0
-294 3348 0
-3348 3358 0
-295 -3348 3349 0
-3349 3359 0
-296 -3349 3350 0
-3350 3360 0
-297 -3350 3351 0
-3351 3361 0
-298 -3351 3352 0
-3352 3362 0
-299 -3352 3353 0
-3353 3363 0
-300 -3353 3354 0
-3354 3364 0
-301 -3354 3355 0
-3355 3365 0
-302 -3355 3356 0
-3356 3366 0
-303 -3356 3357 0
-3357 3367 0
-304 -3357 0
-295 3358 0
-3358 3368 0
-296 -3358 3359 0
-3359 3369 0
-297 -3359 3360 0
-3360 3370 0
-298 -3360 3361 0
-3361 3371 0
-299 -3361 3362 0
-3362 3372 0
-300 -3362 3363 0
-3363 3373 0
-301 -3363 3364 0
-3364 3374 0
-302 -3364 3365 0
-3365 3375 0
-303 -3365 3366 0
-3366 3376 0
-304 -3366 3367 0
-3367 3377 0
-305 -3367 0
-296 3368 0
-3368 3378 0
-297 -3368 3369 0
-3369 3379 0
-298 -3369 3370 0
-3370 3380 0
-299 -3370 3371 0
-3371 3381 0
-300 -3371 3372 0
-3372 3382 0
-301 -3372 3373 0
-3373 3383 0
-302 -3373 3374 0
-3374 3384 0
-303 -3374 3375 0
-3375 3385 0
-304 -3375 3376 0
-3376 3386 0
-305 -3376 3377 0
-3377 3387 0
-306 -3377 0
-297 3378 0
-3378 3388 0
-298 -3378 3379 0
-3379 3389 0
-299 -3379 3380 0
-3380 3390 0
-300 -3380 3381 0
-3381 3391 0
-301 -3381 3382 0
-3382 3392 0
-302 -3382 3383 0
-3383 3393 0
-303 -3383 3384 0
-3384 3394 0
-304 -3384 3385 0
-3385 3395 0
-305 -3385 3386 0
-3386 3396 0
-306 -3386 3387 0
-3387 3397 0
-307 -3387 0
-298 3388 0
-3388 3398 0
-299 -3388 3389 0
-3389 3399 0
-300 -3389 3390 0
-3390 3400 0
-301 -3390 3391 0
-3391 3401 0
-302 -3391 3392 0
-3392 3402 0
-303 -3392 3393 0
-3393 3403 0
-304 -3393 3394 0
-3394 3404 0
-305 -3394 3395 0
-3395 3405 0
-306 -3395 3396 0
-3396 3406 0
-307 -3396 3397 0
-3397 3407 0
-308 -3397 0
-299 3398 0
-3398 3408 0
-300 -3398 3399 0
-3399 3409 0
-301 -3399 3400 0
-3400 3410 0
-302 -3400 3401 0
-3401 3411 0
-303 -3401 3402 0
-3402 3412 0
-304 -3402 3403 0
-3403 3413 0
-305 -3403 3404 0
-3404 3414 0
-306 -3404 3405 0
-3405 3415 0
-307 -3405 3406 0
-3406 3416 0
-308 -3406 3407 0
-3407 3417 0
-309 -3407 0
-300 3408 0
-3408 3418 0
-301 -3408 3409 0
-3409 3419 0
-302 -3409 3410 0
-3410 3420 0
-303 -3410 3411 0
-3411 3421 0
-304 -3411 3412 0
-3412 3422 0
-305 -3412 3413 0
-3413 3423 0
-306 -3413 3414 0
-3414 3424 0
-307 -3414 3415 0
-3415 3425 0
-308 -3415 3416 0
-3416 3426 0
-309 -3416 3417 0
-3417 3427 0
-310 -3417 0
-301 3418 0
-3418 3428 0
-302 -3418 3419 0
-3419 3429 0
-303 -3419 3420 0
-3420 3430 0
-304 -3420 3421 0
-3421 3431 0
-305 -3421 3422 0
-3422 3432 0
-306 -3422 3423 0
-3423 3433 0
-307 -3423 3424 0
-3424 3434 0
-308 -3424 3425 0
-3425 3435 0
-309 -3425 3426 0
-3426 3436 0
-310 -3426 3427 0
-3427 3437 0
-311 -3427 0
-302 3428 0
-3428 3438 0
-303 -3428 3429 0
-3429 3439 0
-304 -3429 3430 0
-3430 3440 0
-305 -3430 3431 0
-3431 3441 0
-306 -3431 3432 0
-3432 3442 0
-307 -3432 3433 0
-3433 3443 0
-308 -3433 3434 0
-3434 3444 0
-309 -3434 3435 0
-3435 3445 0
-310 -3435 3436 0
-3436 3446 0
-311 -3436 3437 0
-3437 3447 0
-312 -3437 0
-303 3438 0
-3438 3448 0
-304 -3438 3439 0
-3439 3449 0
-305 -3439 3440 0
-3440 3450 0
-306 -3440 3441 0
-3441 3451 0
-307 -3441 3442 0
-3442 3452 0
-308 -3442 3443 0
-3443 3453 0
-309 -3443 3444 0
-3444 3454 0
-310 -3444 3445 0
-3445 3455 0
-311 -3445 3446 0
-3446 3456 0
-312 -3446 3447 0
-3447 3457 0
-313 -3447 0
-304 3448 0
-3448 3458 0
-305 -3448 3449 0
-3449 3459 0
-306 -3449 3450 0
-3450 3460 0
-307 -3450 3451 0
-3451 3461 0
-308 -3451 3452 0
-3452 3462 0
-309 -3452 3453 0
-3453 3463 0
-310 -3453 3454 0
-3454 3464 0
-311 -3454 3455 0
-3455 3465 0
-312 -3455 3456 0
-3456 3466 0
-313 -3456 3457 0
-3457 3467 0
-314 -3457 0
-305 3458 0
-3458 3468 0
-306 -3458 3459 0
-3459 3469 0
-307 -3459 3460 0
-3460 3470 0
-308 -3460 3461 0
-3461 3471 0
-309 -3461 3462 0
-3462 3472 0
-310 -3462 3463 0
-3463 3473 0
-311 -3463 3464 0
-3464 3474 0
-312 -3464 3465 0
-3465 3475 0
-313 -3465 3466 0
-3466 3476 0
-314 -3466 3467 0
-3467 3477 0
-315 -3467 0
-306 3468 0
-3468 3478 0
-307 -3468 3469 0
-3469 3479 0
-308 -3469 3470 0
-3470 3480 0
-309 -3470 3471 0
-3471 3481 0
-310 -3471 3472 0
-3472 3482 0
-311 -3472 3473 0
-3473 3483 0
-312 -3473 3474 0
-3474 3484 0
-313 -3474 3475 0
-3475 3485 0
-314 -3475 3476 0
-3476 3486 0
-315 -3476 3477 0
-3477 3487 0
-316 -3477 0
-307 3478 0
-3478 3488 0
-308 -3478 3479 0
-3479 3489 0
-309 -3479 3480 0
-3480 3490 0
-310 -3480 3481 0
-3481 3491 0
-311 -3481 3482 0
-3482 3492 0
-312 -3482 3483 0
-3483 3493 0
-313 -3483 3484 0
-3484 3494 0
-314 -3484 3485 0
-3485 3495 0
-315 -3485 3486 0
-3486 3496 0
-316 -3486 3487 0
-3487 3497 0
-317 -3487 0
-308 3488 0
-3488 3498 0
-309 -3488 3489 0
-3489 3499 0
-310 -3489 3490 0
-3490 3500 0
-311 -3490 3491 0
-3491 3501 0
-312 -3491 3492 0
-3492 3502 0
-313 -3492 3493 0
-3493 3503 0
-314 -3493 3494 0
-3494 3504 0
-315 -3494 3495 0
-3495 3505 0
-316 -3495 3496 0
-3496 3506 0
-317 -3496 3497 0
-3497 3507 0
-318 -3497 0
-309 3498 0
-3498 3508 0
-310 -3498 3499 0
-3499 3509 0
-311 -3499 3500 0
-3500 3510 0
-312 -3500 3501 0
-3501 3511 0
-313 -3501 3502 0
-3502 3512 0
-314 -3502 3503 0
-3503 3513 0
-315 -3503 3504 0
-3504 3514 0
-316 -3504 3505 0
-3505 3515 0
-317 -3505 3506 0
-3506 3516 0
-318 -3506 3507 0
-3507 3517 0
-319 -3507 0
-310 3508 0
-3508 3518 0
-311 -3508 3509 0
-3509 3519 0
-312 -3509 3510 0
-3510 3520 0
-313 -3510 3511 0
-3511 3521 0
-314 -3511 3512 0
-3512 3522 0
-315 -3512 3513 0
-3513 3523 0
-316 -3513 3514 0
-3514 3524 0
-317 -3514 3515 0
-3515 3525 0
-318 -3515 3516 0
-3516 3526 0
-319 -3516 3517 0
-3517 3527 0
-320 -3517 0
-311 3518 0
-3518 3528 0
-312 -3518 3519 0
-3519 3529 0
-313 -3519 3520 0
-3520 3530 0
-314 -3520 3521 0
-3521 3531 0
-315 -3521 3522 0
-3522 3532 0
-316 -3522 3523 0
-3523 3533 0
-317 -3523 3524 0
-3524 3534 0
-318 -3524 3525 0
-3525 3535 0
-319 -3525 3526 0
-3526 3536 0
-320 -3526 3527 0
-3527 3537 0
-321 -3527 0
-312 3528 0
-3528 3538 0
-313 -3528 3529 0
-3529 3539 0
-314 -3529 3530 0
-3530 3540 0
-315 -3530 3531 0
-3531 3541 0
-316 -3531 3532 0
-3532 3542 0
-317 -3532 3533 0
-3533 3543 0
-318 -3533 3534 0
-3534 3544 0
-319 -3534 3535 0
-3535 3545 0
-320 -3535 3536 0
-3536 3546 0
-321 -3536 3537 0
-3537 3547 0
-322 -3537 0
-313 3538 0
-3538 3548 0
-314 -3538 3539 0
-3539 3549 0
-315 -3539 3540 0
-3540 3550 0
-316 -3540 3541 0
-3541 3551 0
-317 -3541 3542 0
-3542 3552 0
-318 -3542 3543 0
-3543 3553 0
-319 -3543 3544 0
-3544 3554 0
-320 -3544 3545 0
-3545 3555 0
-321 -3545 3546 0
-3546 3556 0
-322 -3546 3547 0
-3547 3557 0
-323 -3547 0
-314 3548 0
-3548 3558 0
-315 -3548 3549 0
-3549 3559 0
-316 -3549 3550 0
-3550 3560 0
-317 -3550 3551 0
-3551 3561 0
-318 -3551 3552 0
-3552 3562 0
-319 -3552 3553 0
-3553 3563 0
-320 -3553 3554 0
-3554 3564 0
-321 -3554 3555 0
-3555 3565 0
-322 -3555 3556 0
-3556 3566 0
-323 -3556 3557 0
-3557 3567 0
-324 -3557 0
-315 3558 0
-3558 3568 0
-316 -3558 3559 0
-3559 3569 0
-317 -3559 3560 0
-3560 3570 0
-318 -3560 3561 0
-3561 3571 0
-319 -3561 3562 0
-3562 3572 0
-320 -3562 3563 0
-3563 3573 0
-321 -3563 3564 0
-3564 3574 0
-322 -3564 3565 0
-3565 3575 0
-323 -3565 3566 0
-3566 3576 0
-324 -3566 3567 0
-3567 3577 0
-325 -3567 0
-316 3568 0
-3568 3578 0
-317 -3568 3569 0
-3569 3579 0
-318 -3569 3570 0
-3570 3580 0
-319 -3570 3571 0
-3571 3581 0
-320 -3571 3572 0
-3572 3582 0
-321 -3572 3573 0
-3573 3583 0
-322 -3573 3574 0
-3574 3584 0
-323 -3574 3575 0
-3575 3585 0
-324 -3575 3576 0
-3576 3586 0
-325 -3576 3577 0
-3577 3587 0
-326 -3577 0
-317 3578 0
-3578 3588 0
-318 -3578 3579 0
-3579 3589 0
-319 -3579 3580 0
-3580 3590 0
-320 -3580 3581 0
-3581 3591 0
-321 -3581 3582 0
-3582 3592 0
-322 -3582 3583 0
-3583 3593 0
-323 -3583 3584 0
-3584 3594 0
-324 -3584 3585 0
-3585 3595 0
-325 -3585 3586 0
-3586 3596 0
-326 -3586 3587 0
-3587 3597 0
-327 -3587 0
-318 3588 0
-3588 3598 0
-319 -3588 3589 0
-3589 3599 0
-320 -3589 3590 0
-3590 3600 0
-321 -3590 3591 0
-3591 3601 0
-322 -3591 3592 0
-3592 3602 0
-323 -3592 3593 0
-3593 3603 0
-324 -3593 3594 0
-3594 3604 0
-325 -3594 3595 0
-3595 3605 0
-326 -3595 3596 0
-3596 3606 0
-327 -3596 3597 0
-3597 3607 0
-328 -3597 0
-319 3598 0
-3598 3608 0
-320 -3598 3599 0
-3599 3609 0
-321 -3599 3600 0
-3600 3610 0
-322 -3600 3601 0
-3601 3611 0
-323 -3601 3602 0
-3602 3612 0
-324 -3602 3603 0
-3603 3613 0
-325 -3603 3604 0
-3604 3614 0
-326 -3604 3605 0
-3605 3615 0
-327 -3605 3606 0
-3606 3616 0
-328 -3606 3607 0
-3607 3617 0
-329 -3607 0
-320 3608 0
-3608 3618 0
-321 -3608 3609 0
-3609 3619 0
-322 -3609 3610 0
-3610 3620 0
-323 -3610 3611 0
-3611 3621 0
-324 -3611 3612 0
-3612 3622 0
-325 -3612 3613 0
-3613 3623 0
-326 -3613 3614 0
-3614 3624 0
-327 -3614 3615 0
-3615 3625 0
-328 -3615 3616 0
-3616 3626 0
-329 -3616 3617 0
-3617 3627 0
-330 -3617 0
-321 3618 0
-3618 3628 0
-322 -3618 3619 0
-3619 3629 0
-323 -3619 3620 0
-3620 3630 0
-324 -3620 3621 0
-3621 3631 0
-325 -3621 3622 0
-3622 3632 0
-326 -3622 3623 0
-3623 3633 0
-327 -3623 3624 0
-3624 3634 0
-328 -3624 3625 0
-3625 3635 0
-329 -3625 3626 0
-3626 3636 0
-330 -3626 3627 0
-3627 3637 0
-331 -3627 0
-322 3628 0
-3628 3638 0
-323 -3628 3629 0
-3629 3639 0
-324 -3629 3630 0
-3630 3640 0
-325 -3630 3631 0
-3631 3641 0
-326 -3631 3632 0
-3632 3642 0
-327 -3632 3633 0
-3633 3643 0
-328 -3633 3634 0
-3634 3644 0
-329 -3634 3635 0
-3635 3645 0
-330 -3635 3636 0
-3636 3646 0
-331 -3636 3637 0
-3637 3647 0
-332 -3637 0
-323 3638 0
-3638 3648 0
-324 -3638 3639 0
-3639 3649 0
-325 -3639 3640 0
-3640 3650 0
-326 -3640 3641 0
-3641 3651 0
-327 -3641 3642 0
-3642 3652 0
-328 -3642 3643 0
-3643 3653 0
-329 -3643 3644 0
-3644 3654 0
-330 -3644 3645 0
-3645 3655 0
-331 -3645 3646 0
-3646 3656 0
-332 -3646 3647 0
-3647 3657 0
-333 -3647 0
-324 3648 0
-3648 3658 0
-325 -3648 3649 0
-3649 3659 0
-326 -3649 3650 0
-3650 3660 0
-327 -3650 3651 0
-3651 3661 0
-328 -3651 3652 0
-3652 3662 0
-329 -3652 3653 0
-3653 3663 0
-330 -3653 3654 0
-3654 3664 0
-331 -3654 3655 0
-3655 3665 0
-332 -3655 3656 0
-3656 3666 0
-333 -3656 3657 0
-3657 3667 0
-334 -3657 0
-325 3658 0
-3658 3668 0
-326 -3658 3659 0
-3659 3669 0
-327 -3659 3660 0
-3660 3670 0
-328 -3660 3661 0
-3661 3671 0
-329 -3661 3662 0
-3662 3672 0
-330 -3662 3663 0
-3663 3673 0
-331 -3663 3664 0
-3664 3674 0
-332 -3664 3665 0
-3665 3675 0
-333 -3665 3666 0
-3666 3676 0
-334 -3666 3667 0
-3667 3677 0
-335 -3667 0
-326 3668 0
-3668 3678 0
-327 -3668 3669 0
-3669 3679 0
-328 -3669 3670 0
-3670 3680 0
-329 -3670 3671 0
-3671 3681 0
-330 -3671 3672 0
-3672 3682 0
-331 -3672 3673 0
-3673 3683 0
-332 -3673 3674 0
-3674 3684 0
-333 -3674 3675 0
-3675 3685 0
-334 -3675 3676 0
-3676 3686 0
-335 -3676 3677 0
-3677 3687 0
-336 -3677 0
-327 3678 0
-3678 3688 0
-328 -3678 3679 0
-3679 3689 0
-329 -3679 3680 0
-3680 3690 0
-330 -3680 3681 0
-3681 3691 0
-331 -3681 3682 0
-3682 3692 0
-332 -3682 3683 0
-3683 3693 0
-333 -3683 3684 0
-3684 3694 0
-334 -3684 3685 0
-3685 3695 0
-335 -3685 3686 0
-3686 3696 0
-336 -3686 3687 0
-3687 3697 0
-337 -3687 0
-328 3688 0
-3688 3698 0
-329 -3688 3689 0
-3689 3699 0
-330 -3689 3690 0
-3690 3700 0
-331 -3690 3691 0
-3691 3701 0
-332 -3691 3692 0
-3692 3702 0
-333 -3692 3693 0
-3693 3703 0
-334 -3693 3694 0
-3694 3704 0
-335 -3694 3695 0
-3695 3705 0
-336 -3695 3696 0
-3696 3706 0
-337 -3696 3697 0
-3697 3707 0
-338 -3697 0
-329 3698 0
-3698 3708 0
-330 -3698 3699 0
-3699 3709 0
-331 -3699 3700 0
-3700 3710 0
-332 -3700 3701 0
-3701 3711 0
-333 -3701 3702 0
-3702 3712 0
-334 -3702 3703 0
-3703 3713 0
-335 -3703 3704 0
-3704 3714 0
-336 -3704 3705 0
-3705 3715 0
-337 -3705 3706 0
-3706 3716 0
-338 -3706 3707 0
-3707 3717 0
-339 -3707 0
-330 3708 0
-3708 3718 0
-331 -3708 3709 0
-3709 3719 0
-332 -3709 3710 0
-3710 3720 0
-333 -3710 3711 0
-3711 3721 0
-334 -3711 3712 0
-3712 3722 0
-335 -3712 3713 0
-3713 3723 0
-336 -3713 3714 0
-3714 3724 0
-337 -3714 3715 0
-3715 3725 0
-338 -3715 3716 0
-3716 3726 0
-339 -3716 3717 0
-3717 3727 0
-340 -3717 0
-331 3718 0
-3718 3728 0
-332 -3718 3719 0
-3719 3729 0
-333 -3719 3720 0
-3720 3730 0
-334 -3720 3721 0
-3721 3731 0
-335 -3721 3722 0
-3722 3732 0
-336 -3722 3723 0
-3723 3733 0
-337 -3723 3724 0
-3724 3734 0
-338 -3724 3725 0
-3725 3735 0
-339 -3725 3726 0
-3726 3736 0
-340 -3726 3727 0
-3727 3737 0
-341 -3727 0
-332 3728 0
-3728 3738 0
-333 -3728 3729 0
-3729 3739 0
-334 -3729 3730 0
-3730 3740 0
-335 -3730 3731 0
-3731 3741 0
-336 -3731 3732 0
-3732 3742 0
-337 -3732 3733 0
-3733 3743 0
-338 -3733 3734 0
-3734 3744 0
-339 -3734 3735 0
-3735 3745 0
-340 -3735 3736 0
-3736 3746 0
-341 -3736 3737 0
-3737 3747 0
-342 -3737 0
-333 3738 0
-3738 3748 0
-334 -3738 3739 0
-3739 3749 0
-335 -3739 3740 0
-3740 3750 0
-336 -3740 3741 0
-3741 3751 0
-337 -3741 3742 0
-3742 3752 0
-338 -3742 3743 0
-3743 3753 0
-339 -3743 3744 0
-3744 3754 0
-340 -3744 3745 0
-3745 3755 0
-341 -3745 3746 0
-3746 3756 0
-342 -3746 3747 0
-3747 3757 0
-343 -3747 0
-334 3748 0
-3748 3758 0
-335 -3748 3749 0
-3749 3759 0
-336 -3749 3750 0
-3750 3760 0
-337 -3750 3751 0
-3751 3761 0
-338 -3751 3752 0
-3752 3762 0
-339 -3752 3753 0
-3753 3763 0
-340 -3753 3754 0
-3754 3764 0
-341 -3754 3755 0
-3755 3765 0
-342 -3755 3756 0
-3756 3766 0
-343 -3756 3757 0
-3757 3767 0
-344 -3757 0
-335 3758 0
-3758 3768 0
-336 -3758 3759 0
-3759 3769 0
-337 -3759 3760 0
-3760 3770 0
-338 -3760 3761 0
-3761 3771 0
-339 -3761 3762 0
-3762 3772 0
-340 -3762 3763 0
-3763 3773 0
-341 -3763 3764 0
-3764 3774 0
-342 -3764 3765 0
-3765 3775 0
-343 -3765 3766 0
-3766 3776 0
-344 -3766 3767 0
-3767 3777 0
-345 -3767 0
-336 3768 0
-3768 3778 0
-337 -3768 3769 0
-3769 3779 0
-338 -3769 3770 0
-3770 3780 0
-339 -3770 3771 0
-3771 3781 0
-340 -3771 3772 0
-3772 3782 0
-341 -3772 3773 0
-3773 3783 0
-342 -3773 3774 0
-3774 3784 0
-343 -3774 3775 0
-3775 3785 0
-344 -3775 3776 0
-3776 3786 0
-345 -3776 3777 0
-3777 3787 0
-346 -3777 0
-337 3778 0
-3778 3788 0
-338 -3778 3779 0
-3779 3789 0
-339 -3779 3780 0
-3780 3790 0
-340 -3780 3781 0
-3781 3791 0
-341 -3781 3782 0
-3782 3792 0
-342 -3782 3783 0
-3783 3793 0
-343 -3783 3784 0
-3784 3794 0
-344 -3784 3785 0
-3785 3795 0
-345 -3785 3786 0
-3786 3796 0
-346 -3786 3787 0
-3787 3797 0
-347 -3787 0
-338 3788 0
-3788 3798 0
-339 -3788 3789 0
-3789 3799 0
-340 -3789 3790 0
-3790 3800 0
-341 -3790 3791 0
-3791 3801 0
-342 -3791 3792 0
-3792 3802 0
-343 -3792 3793 0
-3793 3803 0
-344 -3793 3794 0
-3794 3804 0
-345 -3794 3795 0
-3795 3805 0
-346 -3795 3796 0
-3796 3806 0
-347 -3796 3797 0
-3797 3807 0
-348 -3797 0
-339 3798 0
-3798 3808 0
-340 -3798 3799 0
-3799 3809 0
-341 -3799 3800 0
-3800 3810 0
-342 -3800 3801 0
-3801 3811 0
-343 -3801 3802 0
-3802 3812 0
-344 -3802 3803 0
-3803 3813 0
-345 -3803 3804 0
-3804 3814 0
-346 -3804 3805 0
-3805 3815 0
-347 -3805 3806 0
-3806 3816 0
-348 -3806 3807 0
-3807 3817 0
-349 -3807 0
-340 3808 0
-3808 3818 0
-341 -3808 3809 0
-3809 3819 0
-342 -3809 3810 0
-3810 3820 0
-343 -3810 3811 0
-3811 3821 0
-344 -3811 3812 0
-3812 3822 0
-345 -3812 3813 0
-3813 3823 0
-346 -3813 3814 0
-3814 3824 0
-347 -3814 3815 0
-3815 3825 0
-348 -3815 3816 0
-3816 3826 0
-349 -3816 3817 0
-3817 3827 0
-350 -3817 0
-341 3818 0
-3818 3828 0
-342 -3818 3819 0
-3819 3829 0
-343 -3819 3820 0
-3820 3830 0
-344 -3820 3821 0
-3821 3831 0
-345 -3821 3822 0
-3822 3832 0
-346 -3822 3823 0
-3823 3833 0
-347 -3823 3824 0
-3824 3834 0
-348 -3824 3825 0
-3825 3835 0
-349 -3825 3826 0
-3826 3836 0
-350 -3826 3827 0
-3827 3837 0
-351 -3827 0
-342 3828 0
-3828 3838 0
-343 -3828 3829 0
-3829 3839 0
-344 -3829 3830 0
-3830 3840 0
-345 -3830 3831 0
-3831 3841 0
-346 -3831 3832 0
-3832 3842 0
-347 -3832 3833 0
-3833 3843 0
-348 -3833 3834 0
-3834 3844 0
-349 -3834 3835 0
-3835 3845 0
-350 -3835 3836 0
-3836 3846 0
-351 -3836 3837 0
-3837 3847 0
-352 -3837 0
-343 3838 0
-3838 3848 0
-344 -3838 3839 0
-3839 3849 0
-345 -3839 3840 0
-3840 3850 0
-346 -3840 3841 0
-3841 3851 0
-347 -3841 3842 0
-3842 3852 0
-348 -3842 3843 0
-3843 3853 0
-349 -3843 3844 0
-3844 3854 0
-350 -3844 3845 0
-3845 3855 0
-351 -3845 3846 0
-3846 3856 0
-352 -3846 3847 0
-3847 3857 0
-353 -3847 0
-344 3848 0
-3848 3858 0
-345 -3848 3849 0
-3849 3859 0
-346 -3849 3850 0
-3850 3860 0
-347 -3850 3851 0
-3851 3861 0
-348 -3851 3852 0
-3852 3862 0
-349 -3852 3853 0
-3853 3863 0
-350 -3853 3854 0
-3854 3864 0
-351 -3854 3855 0
-3855 3865 0
-352 -3855 3856 0
-3856 3866 0
-353 -3856 3857 0
-3857 3867 0
-354 -3857 0
-345 3858 0
-3858 3868 0
-346 -3858 3859 0
-3859 3869 0
-347 -3859 3860 0
-3860 3870 0
-348 -3860 3861 0
-3861 3871 0
-349 -3861 3862 0
-3862 3872 0
-350 -3862 3863 0
-3863 3873 0
-351 -3863 3864 0
-3864 3874 0
-352 -3864 3865 0
-3865 3875 0
-353 -3865 3866 0
-3866 3876 0
-354 -3866 3867 0
-3867 3877 0
-355 -3867 0
-346 3868 0
-3868 3878 0
-347 -3868 3869 0
-3869 3879 0
-348 -3869 3870 0
-3870 3880 0
-349 -3870 3871 0
-3871 3881 0
-350 -3871 3872 0
-3872 3882 0
-351 -3872 3873 0
-3873 3883 0
-352 -3873 3874 0
-3874 3884 0
-353 -3874 3875 0
-3875 3885 0
-354 -3875 3876 0
-3876 3886 0
-355 -3876 3877 0
-3877 3887 0
-356 -3877 0
-347 3878 0
-3878 3888 0
-348 -3878 3879 0
-3879 3889 0
-349 -3879 3880 0
-3880 3890 0
-350 -3880 3881 0
-3881 3891 0
-351 -3881 3882 0
-3882 3892 0
-352 -3882 3883 0
-3883 3893 0
-353 -3883 3884 0
-3884 3894 0
-354 -3884 3885 0
-3885 3895 0
-355 -3885 3886 0
-3886 3896 0
-356 -3886 3887 0
-3887 3897 0
-357 -3887 0
-348 3888 0
-3888 3898 0
-349 -3888 3889 0
-3889 3899 0
-350 -3889 3890 0
-3890 3900 0
-351 -3890 3891 0
-3891 3901 0
-352 -3891 3892 0
-3892 3902 0
-353 -3892 3893 0
-3893 3903 0
-354 -3893 3894 0
-3894 3904 0
-355 -3894 3895 0
-3895 3905 0
-356 -3895 3896 0
-3896 3906 0
-357 -3896 3897 0
-3897 3907 0
-358 -3897 0
-349 3898 0
-3898 3908 0
-350 -3898 3899 0
-3899 3909 0
-351 -3899 3900 0
-3900 3910 0
-352 -3900 3901 0
-3901 3911 0
-353 -3901 3902 0
-3902 3912 0
-354 -3902 3903 0
-3903 3913 0
-355 -3903 3904 0
-3904 3914 0
-356 -3904 3905 0
-3905 3915 0
-357 -3905 3906 0
-3906 3916 0
-358 -3906 3907 0
-3907 3917 0
-359 -3907 0
-350 3908 0
-3908 3918 0
-351 -3908 3909 0
-3909 3919 0
-352 -3909 3910 0
-3910 3920 0
-353 -3910 3911 0
-3911 3921 0
-354 -3911 3912 0
-3912 3922 0
-355 -3912 3913 0
-3913 3923 0
-356 -3913 3914 0
-3914 3924 0
-357 -3914 3915 0
-3915 3925 0
-358 -3915 3916 0
-3916 3926 0
-359 -3916 3917 0
-3917 3927 0
-360 -3917 0
-351 3918 0
-3918 3928 0
-352 -3918 3919 0
-3919 3929 0
-353 -3919 3920 0
-3920 3930 0
-354 -3920 3921 0
-3921 3931 0
-355 -3921 3922 0
-3922 3932 0
-356 -3922 3923 0
-3923 3933 0
-357 -3923 3924 0
-3924 3934 0
-358 -3924 3925 0
-3925 3935 0
-359 -3925 3926 0
-3926 3936 0
-360 -3926 3927 0
-3927 3937 0
-361 -3927 0
-352 3928 0
-3928 3938 0
-353 -3928 3929 0
-3929 3939 0
-354 -3929 3930 0
-3930 3940 0
-355 -3930 3931 0
-3931 3941 0
-356 -3931 3932 0
-3932 3942 0
-357 -3932 3933 0
-3933 3943 0
-358 -3933 3934 0
-3934 3944 0
-359 -3934 3935 0
-3935 3945 0
-360 -3935 3936 0
-3936 3946 0
-361 -3936 3937 0
-3937 3947 0
-362 -3937 0
-353 3938 0
-3938 3948 0
-354 -3938 3939 0
-3939 3949 0
-355 -3939 3940 0
-3940 3950 0
-356 -3940 3941 0
-3941 3951 0
-357 -3941 3942 0
-3942 3952 0
-358 -3942 3943 0
-3943 3953 0
-359 -3943 3944 0
-3944 3954 0
-360 -3944 3945 0
-3945 3955 0
-361 -3945 3946 0
-3946 3956 0
-362 -3946 3947 0
-3947 3957 0
-363 -3947 0
-354 3948 0
-3948 3958 0
-355 -3948 3949 0
-3949 3959 0
-356 -3949 3950 0
-3950 3960 0
-357 -3950 3951 0
-3951 3961 0
-358 -3951 3952 0
-3952 3962 0
-359 -3952 3953 0
-3953 3963 0
-360 -3953 3954 0
-3954 3964 0
-361 -3954 3955 0
-3955 3965 0
-362 -3955 3956 0
-3956 3966 0
-363 -3956 3957 0
-3957 3967 0
-364 -3957 0
-355 3958 0
-3958 3968 0
-356 -3958 3959 0
-3959 3969 0
-357 -3959 3960 0
-3960 3970 0
-358 -3960 3961 0
-3961 3971 0
-359 -3961 3962 0
-3962 3972 0
-360 -3962 3963 0
-3963 3973 0
-361 -3963 3964 0
-3964 3974 0
-362 -3964 3965 0
-3965 3975 0
-363 -3965 3966 0
-3966 3976 0
-364 -3966 3967 0
-3967 3977 0
-365 -3967 0
-356 3968 0
-3968 3978 0
-357 -3968 3969 0
-3969 3979 0
-358 -3969 3970 0
-3970 3980 0
-359 -3970 3971 0
-3971 3981 0
-360 -3971 3972 0
-3972 3982 0
-361 -3972 3973 0
-3973 3983 0
-362 -3973 3974 0
-3974 3984 0
-363 -3974 3975 0
-3975 3985 0
-364 -3975 3976 0
-3976 3986 0
-365 -3976 3977 0
-3977 3987 0
-366 -3977 0
-357 3978 0
-3978 3988 0
-358 -3978 3979 0
-3979 3989 0
-359 -3979 3980 0
-3980 3990 0
-360 -3980 3981 0
-3981 3991 0
-361 -3981 3982 0
-3982 3992 0
-362 -3982 3983 0
-3983 3993 0
-363 -3983 3984 0
-3984 3994 0
-364 -3984 3985 0
-3985 3995 0
-365 -3985 3986 0
-3986 3996 0
-366 -3986 3987 0
-3987 3997 0
-367 -3987 0
-358 3988 0
-3988 3998 0
-359 -3988 3989 0
-3989 3999 0
-360 -3989 3990 0
-3990 4000 0
-361 -3990 3991 0
-3991 4001 0
-362 -3991 3992 0
-3992 4002 0
-363 -3992 3993 0
-3993 4003 0
-364 -3993 3994 0
-3994 4004 0
-365 -3994 3995 0
-3995 4005 0
-366 -3995 3996 0
-3996 4006 0
-367 -3996 3997 0
-3997 4007 0
-368 -3997 0
-359 3998 0
-3998 4008 0
-360 -3998 3999 0
-3999 4009 0
-361 -3999 4000 0
-4000 4010 0
-362 -4000 4001 0
-4001 4011 0
-363 -4001 4002 0
-4002 4012 0
-364 -4002 4003 0
-4003 4013 0
-365 -4003 4004 0
-4004 4014 0
-366 -4004 4005 0
-4005 4015 0
-367 -4005 4006 0
-4006 4016 0
-368 -4006 4007 0
-4007 4017 0
-369 -4007 0
-360 4008 0
-4008 4018 0
-361 -4008 4009 0
-4009 4019 0
-362 -4009 4010 0
-4010 4020 0
-363 -4010 4011 0
-4011 4021 0
-364 -4011 4012 0
-4012 4022 0
-365 -4012 4013 0
-4013 4023 0
-366 -4013 4014 0
-4014 4024 0
-367 -4014 4015 0
-4015 4025 0
-368 -4015 4016 0
-4016 4026 0
-369 -4016 4017 0
-4017 4027 0
-370 -4017 0
-361 4018 0
-4018 4028 0
-362 -4018 4019 0
-4019 4029 0
-363 -4019 4020 0
-4020 4030 0
-364 -4020 4021 0
-4021 4031 0
-365 -4021 4022 0
-4022 4032 0
-366 -4022 4023 0
-4023 4033 0
-367 -4023 4024 0
-4024 4034 0
-368 -4024 4025 0
-4025 4035 0
-369 -4025 4026 0
-4026 4036 0
-370 -4026 4027 0
-4027 4037 0
-371 -4027 0
-362 4028 0
-4028 4038 0
-363 -4028 4029 0
-4029 4039 0
-364 -4029 4030 0
-4030 4040 0
-365 -4030 4031 0
-4031 4041 0
-366 -4031 4032 0
-4032 4042 0
-367 -4032 4033 0
-4033 4043 0
-368 -4033 4034 0
-4034 4044 0
-369 -4034 4035 0
-4035 4045 0
-370 -4035 4036 0
-4036 4046 0
-371 -4036 4037 0
-4037 4047 0
-372 -4037 0
-363 4038 0
-4038 4048 0
-364 -4038 4039 0
-4039 4049 0
-365 -4039 4040 0
-4040 4050 0
-366 -4040 4041 0
-4041 4051 0
-367 -4041 4042 0
-4042 4052 0
-368 -4042 4043 0
-4043 4053 0
-369 -4043 4044 0
-4044 4054 0
-370 -4044 4045 0
-4045 4055 0
-371 -4045 4046 0
-4046 4056 0
-372 -4046 4047 0
-4047 4057 0
-373 -4047 0
-364 4048 0
-4048 4058 0
-365 -4048 4049 0
-4049 4059 0
-366 -4049 4050 0
-4050 4060 0
-367 -4050 4051 0
-4051 4061 0
-368 -4051 4052 0
-4052 4062 0
-369 -4052 4053 0
-4053 4063 0
-370 -4053 4054 0
-4054 4064 0
-371 -4054 4055 0
-4055 4065 0
-372 -4055 4056 0
-4056 4066 0
-373 -4056 4057 0
-4057 4067 0
-374 -4057 0
-365 4058 0
-4058 4068 0
-366 -4058 4059 0
-4059 4069 0
-367 -4059 4060 0
-4060 4070 0
-368 -4060 4061 0
-4061 4071 0
-369 -4061 4062 0
-4062 4072 0
-370 -4062 4063 0
-4063 4073 0
-371 -4063 4064 0
-4064 4074 0
-372 -4064 4065 0
-4065 4075 0
-373 -4065 4066 0
-4066 4076 0
-374 -4066 4067 0
-4067 4077 0
-375 -4067 0
-366 4068 0
-4068 4078 0
-367 -4068 4069 0
-4069 4079 0
-368 -4069 4070 0
-4070 4080 0
-369 -4070 4071 0
-4071 4081 0
-370 -4071 4072 0
-4072 4082 0
-371 -4072 4073 0
-4073 4083 0
-372 -4073 4074 0
-4074 4084 0
-373 -4074 4075 0
-4075 4085 0
-374 -4075 4076 0
-4076 4086 0
-375 -4076 4077 0
-4077 4087 0
-376 -4077 0
-367 4078 0
-4078 4088 0
-368 -4078 4079 0
-4079 4089 0
-369 -4079 4080 0
-4080 4090 0
-370 -4080 4081 0
-4081 4091 0
-371 -4081 4082 0
-4082 4092 0
-372 -4082 4083 0
-4083 4093 0
-373 -4083 4084 0
-4084 4094 0
-374 -4084 4085 0
-4085 4095 0
-375 -4085 4086 0
-4086 4096 0
-376 -4086 4087 0
-4087 4097 0
-377 -4087 0
-368 4088 0
-4088 4098 0
-369 -4088 4089 0
-4089 4099 0
-370 -4089 4090 0
-4090 4100 0
-371 -4090 4091 0
-4091 4101 0
-372 -4091 4092 0
-4092 4102 0
-373 -4092 4093 0
-4093 4103 0
-374 -4093 4094 0
-4094 4104 0
-375 -4094 4095 0
-4095 4105 0
-376 -4095 4096 0
-4096 4106 0
-377 -4096 4097 0
-4097 4107 0
-378 -4097 0
-369 4098 0
-4098 4108 0
-370 -4098 4099 0
-4099 4109 0
-371 -4099 4100 0
-4100 4110 0
-372 -4100 4101 0
-4101 4111 0
-373 -4101 4102 0
-4102 4112 0
-374 -4102 4103 0
-4103 4113 0
-375 -4103 4104 0
-4104 4114 0
-376 -4104 4105 0
-4105 4115 0
-377 -4105 4106 0
-4106 4116 0
-378 -4106 4107 0
-4107 4117 0
-379 -4107 0
-370 4108 0
-4108 4118 0
-371 -4108 4109 0
-4109 4119 0
-372 -4109 4110 0
-4110 4120 0
-373 -4110 4111 0
-4111 4121 0
-374 -4111 4112 0
-4112 4122 0
-375 -4112 4113 0
-4113 4123 0
-376 -4113 4114 0
-4114 4124 0
-377 -4114 4115 0
-4115 4125 0
-378 -4115 4116 0
-4116 4126 0
-379 -4116 4117 0
-4117 4127 0
-380 -4117 0
-371 4118 0
-4118 4128 0
-372 -4118 4119 0
-4119 4129 0
-373 -4119 4120 0
-4120 4130 0
-374 -4120 4121 0
-4121 4131 0
-375 -4121 4122 0
-4122 4132 0
-376 -4122 4123 0
-4123 4133 0
-377 -4123 4124 0
-4124 4134 0
-378 -4124 4125 0
-4125 4135 0
-379 -4125 4126 0
-4126 4136 0
-380 -4126 4127 0
-4127 4137 0
-381 -4127 0
-372 4128 0
-4128 4138 0
-373 -4128 4129 0
-4129 4139 0
-374 -4129 4130 0
-4130 4140 0
-375 -4130 4131 0
-4131 4141 0
-376 -4131 4132 0
-4132 4142 0
-377 -4132 4133 0
-4133 4143 0
-378 -4133 4134 0
-4134 4144 0
-379 -4134 4135 0
-4135 4145 0
-380 -4135 4136 0
-4136 4146 0
-381 -4136 4137 0
-4137 4147 0
-382 -4137 0
-373 4138 0
-4138 4148 0
-374 -4138 4139 0
-4139 4149 0
-375 -4139 4140 0
-4140 4150 0
-376 -4140 4141 0
-4141 4151 0
-377 -4141 4142 0
-4142 4152 0
-378 -4142 4143 0
-4143 4153 0
-379 -4143 4144 0
-4144 4154 0
-380 -4144 4145 0
-4145 4155 0
-381 -4145 4146 0
-4146 4156 0
-382 -4146 4147 0
-4147 4157 0
-383 -4147 0
-374 4148 0
-4148 4158 0
-375 -4148 4149 0
-4149 4159 0
-376 -4149 4150 0
-4150 4160 0
-377 -4150 4151 0
-4151 4161 0
-378 -4151 4152 0
-4152 4162 0
-379 -4152 4153 0
-4153 4163 0
-380 -4153 4154 0
-4154 4164 0
-381 -4154 4155 0
-4155 4165 0
-382 -4155 4156 0
-4156 4166 0
-383 -4156 4157 0
-4157 4167 0
-384 -4157 0
-375 4158 0
-4158 4168 0
-376 -4158 4159 0
-4159 4169 0
-377 -4159 4160 0
-4160 4170 0
-378 -4160 4161 0
-4161 4171 0
-379 -4161 4162 0
-4162 4172 0
-380 -4162 4163 0
-4163 4173 0
-381 -4163 4164 0
-4164 4174 0
-382 -4164 4165 0
-4165 4175 0
-383 -4165 4166 0
-4166 4176 0
-384 -4166 4167 0
-4167 4177 0
-385 -4167 0
-376 4168 0
-4168 4178 0
-377 -4168 4169 0
-4169 4179 0
-378 -4169 4170 0
-4170 4180 0
-379 -4170 4171 0
-4171 4181 0
-380 -4171 4172 0
-4172 4182 0
-381 -4172 4173 0
-4173 4183 0
-382 -4173 4174 0
-4174 4184 0
-383 -4174 4175 0
-4175 4185 0
-384 -4175 4176 0
-4176 4186 0
-385 -4176 4177 0
-4177 4187 0
-386 -4177 0
-377 4178 0
-4178 4188 0
-378 -4178 4179 0
-4179 4189 0
-379 -4179 4180 0
-4180 4190 0
-380 -4180 4181 0
-4181 4191 0
-381 -4181 4182 0
-4182 4192 0
-382 -4182 4183 0
-4183 4193 0
-383 -4183 4184 0
-4184 4194 0
-384 -4184 4185 0
-4185 4195 0
-385 -4185 4186 0
-4186 4196 0
-386 -4186 4187 0
-4187 4197 0
-387 -4187 0
-378 4188 0
-4188 4198 0
-379 -4188 4189 0
-4189 4199 0
-380 -4189 4190 0
-4190 4200 0
-381 -4190 4191 0
-4191 4201 0
-382 -4191 4192 0
-4192 4202 0
-383 -4192 4193 0
-4193 4203 0
-384 -4193 4194 0
-4194 4204 0
-385 -4194 4195 0
-4195 4205 0
-386 -4195 4196 0
-4196 4206 0
-387 -4196 4197 0
-4197 4207 0
-388 -4197 0
-379 4198 0
-4198 4208 0
-380 -4198 4199 0
-4199 4209 0
-381 -4199 4200 0
-4200 4210 0
-382 -4200 4201 0
-4201 4211 0
-383 -4201 4202 0
-4202 4212 0
-384 -4202 4203 0
-4203 4213 0
-385 -4203 4204 0
-4204 4214 0
-386 -4204 4205 0
-4205 4215 0
-387 -4205 4206 0
-4206 4216 0
-388 -4206 4207 0
-4207 4217 0
-389 -4207 0
-380 4208 0
-4208 4218 0
-381 -4208 4209 0
-4209 4219 0
-382 -4209 4210 0
-4210 4220 0
-383 -4210 4211 0
-4211 4221 0
-384 -4211 4212 0
-4212 4222 0
-385 -4212 4213 0
-4213 4223 0
-386 -4213 4214 0
-4214 4224 0
-387 -4214 4215 0
-4215 4225 0
-388 -4215 4216 0
-4216 4226 0
-389 -4216 4217 0
-4217 4227 0
-390 -4217 0
-381 4218 0
-4218 4228 0
-382 -4218 4219 0
-4219 4229 0
-383 -4219 4220 0
-4220 4230 0
-384 -4220 4221 0
-4221 4231 0
-385 -4221 4222 0
-4222 4232 0
-386 -4222 4223 0
-4223 4233 0
-387 -4223 4224 0
-4224 4234 0
-388 -4224 4225 0
-4225 4235 0
-389 -4225 4226 0
-4226 4236 0
-390 -4226 4227 0
-4227 4237 0
-391 -4227 0
-382 4228 0
-4228 4238 0
-383 -4228 4229 0
-4229 4239 0
-384 -4229 4230 0
-4230 4240 0
-385 -4230 4231 0
-4231 4241 0
-386 -4231 4232 0
-4232 4242 0
-387 -4232 4233 0
-4233 4243 0
-388 -4233 4234 0
-4234 4244 0
-389 -4234 4235 0
-4235 4245 0
-390 -4235 4236 0
-4236 4246 0
-391 -4236 4237 0
-4237 4247 0
-392 -4237 0
-383 4238 0
-4238 4248 0
-384 -4238 4239 0
-4239 4249 0
-385 -4239 4240 0
-4240 4250 0
-386 -4240 4241 0
-4241 4251 0
-387 -4241 4242 0
-4242 4252 0
-388 -4242 4243 0
-4243 4253 0
-389 -4243 4244 0
-4244 4254 0
-390 -4244 4245 0
-4245 4255 0
-391 -4245 4246 0
-4246 4256 0
-392 -4246 4247 0
-4247 4257 0
-393 -4247 0
-384 4248 0
-4248 4258 0
-385 -4248 4249 0
-4249 4259 0
-386 -4249 4250 0
-4250 4260 0
-387 -4250 4251 0
-4251 4261 0
-388 -4251 4252 0
-4252 4262 0
-389 -4252 4253 0
-4253 4263 0
-390 -4253 4254 0
-4254 4264 0
-391 -4254 4255 0
-4255 4265 0
-392 -4255 4256 0
-4256 4266 0
-393 -4256 4257 0
-4257 4267 0
-394 -4257 0
-385 4258 0
-4258 4268 0
-386 -4258 4259 0
-4259 4269 0
-387 -4259 4260 0
-4260 4270 0
-388 -4260 4261 0
-4261 4271 0
-389 -4261 4262 0
-4262 4272 0
-390 -4262 4263 0
-4263 4273 0
-391 -4263 4264 0
-4264 4274 0
-392 -4264 4265 0
-4265 4275 0
-393 -4265 4266 0
-4266 4276 0
-394 -4266 4267 0
-4267 4277 0
-395 -4267 0
-386 4268 0
-4268 4278 0
-387 -4268 4269 0
-4269 4279 0
-388 -4269 4270 0
-4270 4280 0
-389 -4270 4271 0
-4271 4281 0
-390 -4271 4272 0
-4272 4282 0
-391 -4272 4273 0
-4273 4283 0
-392 -4273 4274 0
-4274 4284 0
-393 -4274 4275 0
-4275 4285 0
-394 -4275 4276 0
-4276 4286 0
-395 -4276 4277 0
-4277 4287 0
-396 -4277 0
-387 4278 0
-4278 4288 0
-388 -4278 4279 0
-4279 4289 0
-389 -4279 4280 0
-4280 4290 0
-390 -4280 4281 0
-4281 4291 0
-391 -4281 4282 0
-4282 4292 0
-392 -4282 4283 0
-4283 4293 0
-393 -4283 4284 0
-4284 4294 0
-394 -4284 4285 0
-4285 4295 0
-395 -4285 4286 0
-4286 4296 0
-396 -4286 4287 0
-4287 4297 0
-397 -4287 0
-388 4288 0
-4288 4298 0
-389 -4288 4289 0
-4289 4299 0
-390 -4289 4290 0
-4290 4300 0
-391 -4290 4291 0
-4291 4301 0
-392 -4291 4292 0
-4292 4302 0
-393 -4292 4293 0
-4293 4303 0
-394 -4293 4294 0
-4294 4304 0
-395 -4294 4295 0
-4295 4305 0
-396 -4295 4296 0
-4296 4306 0
-397 -4296 4297 0
-4297 4307 0
-398 -4297 0
-389 4298 0
-4298 4308 0
-390 -4298 4299 0
-4299 4309 0
-391 -4299 4300 0
-4300 4310 0
-392 -4300 4301 0
-4301 4311 0
-393 -4301 4302 0
-4302 4312 0
-394 -4302 4303 0
-4303 4313 0
-395 -4303 4304 0
-4304 4314 0
-396 -4304 4305 0
-4305 4315 0
-397 -4305 4306 0
-4306 4316 0
-398 -4306 4307 0
-4307 4317 0
-399 -4307 0
-390 4308 0
-4308 4318 0
-391 -4308 4309 0
-4309 4319 0
-392 -4309 4310 0
-4310 4320 0
-393 -4310 4311 0
-4311 4321 0
-394 -4311 4312 0
-4312 4322 0
-395 -4312 4313 0
-4313 4323 0
-396 -4313 4314 0
-4314 4324 0
-397 -4314 4315 0
-4315 4325 0
-398 -4315 4316 0
-4316 4326 0
-399 -4316 4317 0
-4317 4327 0
-400 -4317 0
-391 4318 0
-4318 4328 0
-392 -4318 4319 0
-4319 4329 0
-393 -4319 4320 0
-4320 4330 0
-394 -4320 4321 0
-4321 4331 0
-395 -4321 4322 0
-4322 4332 0
-396 -4322 4323 0
-4323 4333 0
-397 -4323 4324 0
-4324 4334 0
-398 -4324 4325 0
-4325 4335 0
-399 -4325 4326 0
-4326 4336 0
-400 -4326 4327 0
-4327 4337 0
-401 -4327 0
-392 4328 0
-4328 4338 0
-393 -4328 4329 0
-4329 4339 0
-394 -4329 4330 0
-4330 4340 0
-395 -4330 4331 0
-4331 4341 0
-396 -4331 4332 0
-4332 4342 0
-397 -4332 4333 0
-4333 4343 0
-398 -4333 4334 0
-4334 4344 0
-399 -4334 4335 0
-4335 4345 0
-400 -4335 4336 0
-4336 4346 0
-401 -4336 4337 0
-4337 4347 0
-402 -4337 0
-393 4338 0
-4338 4348 0
-394 -4338 4339 0
-4339 4349 0
-395 -4339 4340 0
-4340 4350 0
-396 -4340 4341 0
-4341 4351 0
-397 -4341 4342 0
-4342 4352 0
-398 -4342 4343 0
-4343 4353 0
-399 -4343 4344 0
-4344 4354 0
-400 -4344 4345 0
-4345 4355 0
-401 -4345 4346 0
-4346 4356 0
-402 -4346 4347 0
-4347 4357 0
-403 -4347 0
-394 4348 0
-4348 4358 0
-395 -4348 4349 0
-4349 4359 0
-396 -4349 4350 0
-4350 4360 0
-397 -4350 4351 0
-4351 4361 0
-398 -4351 4352 0
-4352 4362 0
-399 -4352 4353 0
-4353 4363 0
-400 -4353 4354 0
-4354 4364 0
-401 -4354 4355 0
-4355 4365 0
-402 -4355 4356 0
-4356 4366 0
-403 -4356 4357 0
-4357 4367 0
-404 -4357 0
-395 4358 0
-4358 4368 0
-396 -4358 4359 0
-4359 4369 0
-397 -4359 4360 0
-4360 4370 0
-398 -4360 4361 0
-4361 4371 0
-399 -4361 4362 0
-4362 4372 0
-400 -4362 4363 0
-4363 4373 0
-401 -4363 4364 0
-4364 4374 0
-402 -4364 4365 0
-4365 4375 0
-403 -4365 4366 0
-4366 4376 0
-404 -4366 4367 0
-4367 4377 0
-405 -4367 0
-396 4368 0
-4368 4378 0
-397 -4368 4369 0
-4369 4379 0
-398 -4369 4370 0
-4370 4380 0
-399 -4370 4371 0
-4371 4381 0
-400 -4371 4372 0
-4372 4382 0
-401 -4372 4373 0
-4373 4383 0
-402 -4373 4374 0
-4374 4384 0
-403 -4374 4375 0
-4375 4385 0
-404 -4375 4376 0
-4376 4386 0
-405 -4376 4377 0
-4377 4387 0
-406 -4377 0
-397 4378 0
-4378 4388 0
-398 -4378 4379 0
-4379 4389 0
-399 -4379 4380 0
-4380 4390 0
-400 -4380 4381 0
-4381 4391 0
-401 -4381 4382 0
-4382 4392 0
-402 -4382 4383 0
-4383 4393 0
-403 -4383 4384 0
-4384 4394 0
-404 -4384 4385 0
-4385 4395 0
-405 -4385 4386 0
-4386 4396 0
-406 -4386 4387 0
-4387 4397 0
-407 -4387 0
-398 4388 0
-4388 4398 0
-399 -4388 4389 0
-4389 4399 0
-400 -4389 4390 0
-4390 4400 0
-401 -4390 4391 0
-4391 4401 0
-402 -4391 4392 0
-4392 4402 0
-403 -4392 4393 0
-4393 4403 0
-404 -4393 4394 0
-4394 4404 0
-405 -4394 4395 0
-4395 4405 0
-406 -4395 4396 0
-4396 4406 0
-407 -4396 4397 0
-4397 4407 0
-408 -4397 0
-399 4398 0
-4398 4408 0
-400 -4398 4399 0
-4399 4409 0
-401 -4399 4400 0
-4400 4410 0
-402 -4400 4401 0
-4401 4411 0
-403 -4401 4402 0
-4402 4412 0
-404 -4402 4403 0
-4403 4413 0
-405 -4403 4404 0
-4404 4414 0
-406 -4404 4405 0
-4405 4415 0
-407 -4405 4406 0
-4406 4416 0
-408 -4406 4407 0
-4407 4417 0
-409 -4407 0
-400 4408 0
-4408 4418 0
-401 -4408 4409 0
-4409 4419 0
-402 -4409 4410 0
-4410 4420 0
-403 -4410 4411 0
-4411 4421 0
-404 -4411 4412 0
-4412 4422 0
-405 -4412 4413 0
-4413 4423 0
-406 -4413 4414 0
-4414 4424 0
-407 -4414 4415 0
-4415 4425 0
-408 -4415 4416 0
-4416 4426 0
-409 -4416 4417 0
-4417 4427 0
-410 -4417 0
-401 4418 0
-4418 4428 0
-402 -4418 4419 0
-4419 4429 0
-403 -4419 4420 0
-4420 4430 0
-404 -4420 4421 0
-4421 4431 0
-405 -4421 4422 0
-4422 4432 0
-406 -4422 4423 0
-4423 4433 0
-407 -4423 4424 0
-4424 4434 0
-408 -4424 4425 0
-4425 4435 0
-409 -4425 4426 0
-4426 4436 0
-410 -4426 4427 0
-4427 4437 0
-411 -4427 0
-402 4428 0
-4428 4438 0
-403 -4428 4429 0
-4429 4439 0
-404 -4429 4430 0
-4430 4440 0
-405 -4430 4431 0
-4431 4441 0
-406 -4431 4432 0
-4432 4442 0
-407 -4432 4433 0
-4433 4443 0
-408 -4433 4434 0
-4434 4444 0
-409 -4434 4435 0
-4435 4445 0
-410 -4435 4436 0
-4436 4446 0
-411 -4436 4437 0
-4437 4447 0
-412 -4437 0
-403 4438 0
-4438 4448 0
-404 -4438 4439 0
-4439 4449 0
-405 -4439 4440 0
-4440 4450 0
-406 -4440 4441 0
-4441 4451 0
-407 -4441 4442 0
-4442 4452 0
-408 -4442 4443 0
-4443 4453 0
-409 -4443 4444 0
-4444 4454 0
-410 -4444 4445 0
-4445 4455 0
-411 -4445 4446 0
-4446 4456 0
-412 -4446 4447 0
-4447 4457 0
-413 -4447 0
-404 4448 0
-4448 4458 0
-405 -4448 4449 0
-4449 4459 0
-406 -4449 4450 0
-4450 4460 0
-407 -4450 4451 0
-4451 4461 0
-408 -4451 4452 0
-4452 4462 0
-409 -4452 4453 0
-4453 4463 0
-410 -4453 4454 0
-4454 4464 0
-411 -4454 4455 0
-4455 4465 0
-412 -4455 4456 0
-4456 4466 0
-413 -4456 4457 0
-4457 4467 0
-414 -4457 0
-405 4458 0
-4458 4468 0
-406 -4458 4459 0
-4459 4469 0
-407 -4459 4460 0
-4460 4470 0
-408 -4460 4461 0
-4461 4471 0
-409 -4461 4462 0
-4462 4472 0
-410 -4462 4463 0
-4463 4473 0
-411 -4463 4464 0
-4464 4474 0
-412 -4464 4465 0
-4465 4475 0
-413 -4465 4466 0
-4466 4476 0
-414 -4466 4467 0
-4467 4477 0
-415 -4467 0
-406 4468 0
-4468 4478 0
-407 -4468 4469 0
-4469 4479 0
-408 -4469 4470 0
-4470 4480 0
-409 -4470 4471 0
-4471 4481 0
-410 -4471 4472 0
-4472 4482 0
-411 -4472 4473 0
-4473 4483 0
-412 -4473 4474 0
-4474 4484 0
-413 -4474 4475 0
-4475 4485 0
-414 -4475 4476 0
-4476 4486 0
-415 -4476 4477 0
-4477 4487 0
-416 -4477 0
-407 4478 0
-408 -4478 4479 0
-409 -4479 4480 0
-410 -4480 4481 0
-411 -4481 4482 0
-412 -4482 4483 0
-413 -4483 4484 0
-414 -4484 4485 0
-415 -4485 4486 0
-416 -4486 4487 0
-417 -4487 0
