p cnf 500 4502
1 2 5 6 0
1 2 3 4 0
3 4 7 8 0
5 6 7 8 0
1 9 10 13 14 0
1 9 10 11 12 0
11 12 15 16 17 0
13 14 15 16 17 0
13 18 19 22 23 0
13 18 19 20 21 0
20 21 24 25 26 0
22 23 24 25 26 0
27 28 29 32 33 0
27 28 29 30 31 0
30 31 34 35 0
32 33 34 35 0
36 37 38 40 41 0
11 36 37 38 39 0
11 39 42 43 44 0
40 41 42 43 44 0
45 46 47 50 51 0
45 46 47 48 49 0
48 49 52 53 0
50 51 52 53 0
54 55 57 58 59 0
22 54 55 56 0
22 56 60 61 62 0
57 58 59 60 61 62 0
63 64 67 68 69 0
63 64 65 66 0
32 65 66 70 71 0
32 67 68 69 70 71 0
72 73 74 77 78 0
67 72 73 74 75 76 0
67 75 76 79 80 81 0
77 78 79 80 81 0
82 83 84 87 88 89 0
82 83 84 85 86 0
85 86 90 91 92 0
87 88 89 90 91 92 0
2 93 94 95 99 100 0
93 94 95 96 97 98 0
85 96 97 98 101 0
2 85 99 100 101 0
87 102 103 105 106 0
52 102 103 104 0
52 104 107 108 109 0
87 105 106 107 108 109 0
60 110 114 115 116 0
60 110 111 112 113 0
111 112 113 117 118 119 0
114 115 116 117 118 119 0
111 120 121 123 0
102 120 121 122 0
102 122 124 125 126 0
111 123 124 125 126 0
124 127 130 131 132 0
124 127 128 129 0
128 129 133 134 0
130 131 132 133 134 0
20 135 137 138 0
20 68 112 135 136 0
68 112 136 139 140 0
137 138 139 140 0
15 141 144 145 146 0
15 141 142 143 0
70 142 143 147 148 0
70 144 145 146 147 148 0
149 150 151 154 155 0
149 150 151 152 153 0
117 152 153 156 0
117 154 155 156 0
72 82 157 161 0
82 157 158 159 160 0
34 107 158 159 160 162 0
34 72 107 161 162 0
7 163 164 167 168 169 0
7 163 164 165 166 0
154 165 166 170 0
154 167 168 169 170 0
171 172 173 176 177 0
167 171 172 173 174 175 0
69 167 174 175 178 179 0
69 176 177 178 179 0
40 180 181 184 185 186 0
40 180 181 182 183 0
163 182 183 187 188 0
163 184 185 186 187 188 0
189 190 191 194 195 196 0
189 190 191 192 193 0
192 193 197 198 0
194 195 196 197 198 0
161 199 200 203 204 0
128 161 199 200 201 202 0
128 201 202 205 206 0
203 204 205 206 0
5 178 184 207 211 0
178 184 207 208 209 210 0
208 209 210 212 213 214 0
5 211 212 213 214 0
212 215 216 218 219 220 0
90 149 212 215 216 217 0
90 149 217 221 222 223 0
218 219 220 221 222 223 0
16 162 224 225 228 229 0
16 42 224 225 226 227 0
42 185 226 227 230 231 0
162 185 228 229 230 231 0
41 232 233 234 237 0
232 233 234 235 236 0
45 144 235 236 238 0
41 45 144 237 238 0
228 239 240 244 0
239 240 241 242 243 0
241 242 243 245 246 247 0
228 244 245 246 247 0
75 99 248 250 251 0
99 237 248 249 0
237 249 252 253 254 0
75 250 251 252 253 254 0
79 194 221 255 258 0
79 255 256 257 0
201 256 257 259 260 0
194 201 221 258 259 260 0
261 262 265 266 0
261 262 263 264 0
96 263 264 267 268 0
96 265 266 267 268 0
252 263 269 270 0
202 269 270 271 272 0
202 218 271 272 273 274 0
218 252 263 273 274 0
275 276 279 280 0
275 276 277 278 0
259 277 278 281 282 0
259 279 280 281 282 0
24 235 283 284 287 288 0
24 36 283 284 285 286 0
36 208 229 285 286 289 0
208 229 235 287 288 289 0
73 145 290 291 294 295 0
145 290 291 292 293 0
30 127 292 293 0
30 73 127 294 295 0
17 273 296 299 0
17 296 297 298 0
297 298 300 301 302 0
273 299 300 301 302 0
33 165 303 304 305 307 0
142 303 304 305 306 0
142 306 308 309 0
33 165 307 308 309 0
39 256 310 313 314 0
39 310 311 312 0
238 311 312 315 316 0
238 256 313 314 315 316 0
130 294 317 318 321 0
130 156 317 318 319 320 0
43 156 319 320 322 0
43 294 321 322 0
76 275 317 324 325 0
76 205 275 323 0
113 205 308 323 326 0
113 308 317 324 325 326 0
150 158 174 215 313 328 0
74 150 158 313 327 0
74 327 329 330 0
174 215 328 329 330 0
331 332 335 336 0
287 331 332 333 334 0
18 287 333 334 337 338 0
18 335 336 337 338 0
311 339 340 343 0
86 339 340 341 342 0
9 86 341 342 344 345 0
9 311 343 344 345 0
50 346 347 348 349 350 0
141 290 346 347 348 0
137 141 261 290 0
50 137 261 349 350 0
25 71 351 352 356 357 0
25 351 352 353 354 355 0
232 333 353 354 355 358 0
71 232 333 356 357 358 0
146 187 359 362 363 0
146 359 360 361 0
346 360 361 364 365 0
187 346 362 363 364 365 0
344 366 367 369 0
189 279 366 367 368 0
189 260 279 368 370 371 0
260 344 369 370 371 0
6 91 129 372 373 0
51 77 91 129 372 0
51 77 241 374 0
6 241 373 374 0
92 180 375 378 0
92 203 375 376 377 0
203 233 376 377 379 0
180 233 378 379 0
370 380 381 383 384 0
219 380 381 382 0
219 276 339 382 0
276 339 370 383 384 0
309 385 387 388 389 0
239 309 385 386 0
239 386 390 391 0
387 388 389 390 391 0
104 369 392 393 396 0
164 392 393 394 395 0
164 186 351 394 395 397 0
104 186 351 369 396 397 0
274 345 398 399 401 0
245 371 398 399 400 0
245 327 353 371 400 0
274 327 345 353 401 0
396 402 403 406 407 0
402 403 404 405 0
131 404 405 408 409 0
131 396 406 407 408 409 0
195 222 242 410 412 0
105 195 242 312 410 411 0
100 105 312 356 382 411 0
100 222 356 382 412 0
35 44 108 303 331 0
35 303 321 331 392 0
321 341 392 413 414 0
44 108 341 413 414 0
415 416 418 419 0
335 415 416 417 0
304 335 417 420 421 0
304 418 419 420 421 0
27 65 422 424 0
65 376 422 423 0
291 376 423 425 426 0
27 291 424 425 426 0
23 48 88 430 431 432 0
23 48 88 427 428 429 0
188 427 428 429 433 0
188 430 431 432 433 0
315 434 435 438 439 0
315 434 435 436 437 0
168 224 436 437 0
168 224 438 439 0
190 342 412 440 0
190 386 440 441 0
53 368 386 441 442 0
53 342 368 412 442 0
243 285 300 443 444 0
114 285 390 443 0
114 155 390 445 0
155 243 300 444 445 0
49 322 446 447 449 0
271 322 446 447 448 0
80 271 434 448 0
49 80 434 449 0
211 436 450 452 0
125 413 436 450 451 0
125 255 319 413 451 0
211 255 319 452 0
250 337 404 453 455 456 0
81 250 404 415 453 454 0
81 118 401 415 454 457 0
118 337 401 455 456 457 0
97 138 217 458 459 0
217 289 450 458 459 0
122 159 289 450 460 0
97 122 138 159 460 0
61 98 240 299 461 462 0
21 61 119 240 461 0
21 119 364 463 0
98 299 364 462 463 0
169 192 253 328 332 418 0
135 192 253 332 464 0
126 135 359 464 0
126 169 328 359 418 0
93 375 465 467 468 0
93 175 453 465 466 0
175 402 425 446 453 466 0
375 402 425 446 467 468 0
63 280 416 469 471 0
63 394 416 469 470 0
133 394 470 472 0
133 280 471 472 0
226 307 373 461 473 474 0
109 307 373 437 473 0
109 329 437 475 0
226 329 461 474 475 0
209 301 452 477 0
57 83 209 452 476 0
57 83 476 478 479 0
301 477 478 479 0
3 78 227 462 0
227 430 462 480 0
302 430 480 481 0
3 78 302 481 0
58 115 292 410 478 482 0
58 281 292 297 408 410 0
254 262 281 297 408 0
115 254 262 478 482 0
64 199 360 482 483 0
26 152 360 483 484 0
26 152 216 236 306 484 0
64 199 216 236 306 482 0
139 372 398 426 448 0
179 277 372 398 426 0
46 110 179 277 484 0
46 110 139 448 484 0
59 223 265 286 349 409 0
248 265 349 409 419 469 0
248 318 354 419 469 0
59 223 286 318 354 0
176 246 357 383 440 0
134 246 383 431 440 485 0
120 134 181 206 431 485 0
120 176 181 206 357 0
213 230 266 465 0
37 213 266 385 0
37 385 486 487 0
230 465 486 487 0
191 427 438 445 488 0
323 423 445 488 0
170 323 423 489 490 0
170 191 427 438 489 490 0
47 106 338 379 420 486 0
338 358 379 403 420 0
343 358 403 414 489 0
47 106 343 414 486 489 0
10 283 366 406 464 467 0
10 136 283 424 464 491 0
136 234 258 424 491 492 0
234 258 366 406 467 492 0
147 197 207 231 479 480 0
147 197 384 433 480 0
326 384 433 435 483 0
207 231 326 435 479 483 0
8 387 458 475 0
8 157 210 454 458 0
157 210 454 481 493 0
387 475 481 493 0
19 31 116 365 0
31 54 94 116 0
54 94 257 316 0
19 257 316 365 0
12 38 182 449 494 495 0
12 182 249 455 494 0
196 249 269 455 476 0
38 196 269 449 476 495 0
153 204 267 270 444 0
204 214 220 267 296 444 0
214 220 296 324 380 0
153 270 324 380 0
166 378 432 443 472 0
28 166 177 472 0
28 177 244 334 466 0
244 334 378 432 443 466 0
89 160 340 374 494 0
89 160 314 407 459 494 0
123 314 407 439 459 491 0
123 340 374 439 491 0
101 264 330 463 0
101 284 330 347 496 0
56 284 347 395 456 496 0
56 264 395 456 463 0
84 405 441 497 0
55 405 428 441 471 0
55 278 397 428 471 0
84 278 397 497 0
148 200 225 417 498 0
200 225 247 288 295 0
247 268 288 295 388 457 0
148 268 388 417 457 498 0
103 151 251 282 474 0
29 103 282 474 488 499 0
29 355 381 447 488 499 0
151 251 355 381 447 0
66 298 336 352 487 496 0
66 293 298 352 362 485 0
293 362 470 485 500 0
336 470 487 496 500 0
272 377 399 451 473 0
132 140 348 399 473 0
132 140 171 198 348 422 0
171 198 272 377 422 451 0
172 305 363 493 495 0
14 172 363 400 495 0
14 183 400 497 0
183 305 493 497 0
121 350 460 499 0
95 121 350 391 490 0
95 320 391 477 490 500 0
320 460 477 499 500 0
143 367 393 492 0
4 143 173 492 0
4 173 325 442 0
325 367 393 442 0
193 361 421 429 498 0
62 411 421 429 468 498 0
62 310 389 411 468 0
193 310 361 389 0
-1 -2 0
-1 -5 0
-1 -6 0
-2 -5 0
-2 -6 0
-5 -6 0
-1 -2 0
-1 -3 0
-1 -4 0
-2 -3 0
-2 -4 0
-3 -4 0
-3 -4 0
-3 -7 0
-3 -8 0
-4 -7 0
-4 -8 0
-7 -8 0
-5 -6 0
-5 -7 0
-5 -8 0
-6 -7 0
-6 -8 0
-7 -8 0
-1 -9 0
-1 -10 0
-1 -13 0
-1 -14 0
-9 -10 0
-9 -13 0
-9 -14 0
-10 -13 0
-10 -14 0
-13 -14 0
-1 -9 0
-1 -10 0
-1 -11 0
-1 -12 0
-9 -10 0
-9 -11 0
-9 -12 0
-10 -11 0
-10 -12 0
-11 -12 0
-11 -12 0
-11 -15 0
-11 -16 0
-11 -17 0
-12 -15 0
-12 -16 0
-12 -17 0
-15 -16 0
-15 -17 0
-16 -17 0
-13 -14 0
-13 -15 0
-13 -16 0
-13 -17 0
-14 -15 0
-14 -16 0
-14 -17 0
-15 -16 0
-15 -17 0
-16 -17 0
-13 -18 0
-13 -19 0
-13 -22 0
-13 -23 0
-18 -19 0
-18 -22 0
-18 -23 0
-19 -22 0
-19 -23 0
-22 -23 0
-13 -18 0
-13 -19 0
-13 -20 0
-13 -21 0
-18 -19 0
-18 -20 0
-18 -21 0
-19 -20 0
-19 -21 0
-20 -21 0
-20 -21 0
-20 -24 0
-20 -25 0
-20 -26 0
-21 -24 0
-21 -25 0
-21 -26 0
-24 -25 0
-24 -26 0
-25 -26 0
-22 -23 0
-22 -24 0
-22 -25 0
-22 -26 0
-23 -24 0
-23 -25 0
-23 -26 0
-24 -25 0
-24 -26 0
-25 -26 0
-27 -28 0
-27 -29 0
-27 -32 0
-27 -33 0
-28 -29 0
-28 -32 0
-28 -33 0
-29 -32 0
-29 -33 0
-32 -33 0
-27 -28 0
-27 -29 0
-27 -30 0
-27 -31 0
-28 -29 0
-28 -30 0
-28 -31 0
-29 -30 0
-29 -31 0
-30 -31 0
-30 -31 0
-30 -34 0
-30 -35 0
-31 -34 0
-31 -35 0
-34 -35 0
-32 -33 0
-32 -34 0
-32 -35 0
-33 -34 0
-33 -35 0
-34 -35 0
-36 -37 0
-36 -38 0
-36 -40 0
-36 -41 0
-37 -38 0
-37 -40 0
-37 -41 0
-38 -40 0
-38 -41 0
-40 -41 0
-11 -36 0
-11 -37 0
-11 -38 0
-11 -39 0
-36 -37 0
-36 -38 0
-36 -39 0
-37 -38 0
-37 -39 0
-38 -39 0
-11 -39 0
-11 -42 0
-11 -43 0
-11 -44 0
-39 -42 0
-39 -43 0
-39 -44 0
-42 -43 0
-42 -44 0
-43 -44 0
-40 -41 0
-40 -42 0
-40 -43 0
-40 -44 0
-41 -42 0
-41 -43 0
-41 -44 0
-42 -43 0
-42 -44 0
-43 -44 0
-45 -46 0
-45 -47 0
-45 -50 0
-45 -51 0
-46 -47 0
-46 -50 0
-46 -51 0
-47 -50 0
-47 -51 0
-50 -51 0
-45 -46 0
-45 -47 0
-45 -48 0
-45 -49 0
-46 -47 0
-46 -48 0
-46 -49 0
-47 -48 0
-47 -49 0
-48 -49 0
-48 -49 0
-48 -52 0
-48 -53 0
-49 -52 0
-49 -53 0
-52 -53 0
-50 -51 0
-50 -52 0
-50 -53 0
-51 -52 0
-51 -53 0
-52 -53 0
-54 -55 0
-54 -57 0
-54 -58 0
-54 -59 0
-55 -57 0
-55 -58 0
-55 -59 0
-57 -58 0
-57 -59 0
-58 -59 0
-22 -54 0
-22 -55 0
-22 -56 0
-54 -55 0
-54 -56 0
-55 -56 0
-22 -56 0
-22 -60 0
-22 -61 0
-22 -62 0
-56 -60 0
-56 -61 0
-56 -62 0
-60 -61 0
-60 -62 0
-61 -62 0
-57 -58 0
-57 -59 0
-57 -60 0
-57 -61 0
-57 -62 0
-58 -59 0
-58 -60 0
-58 -61 0
-58 -62 0
-59 -60 0
-59 -61 0
-59 -62 0
-60 -61 0
-60 -62 0
-61 -62 0
-63 -64 0
-63 -67 0
-63 -68 0
-63 -69 0
-64 -67 0
-64 -68 0
-64 -69 0
-67 -68 0
-67 -69 0
-68 -69 0
-63 -64 0
-63 -65 0
-63 -66 0
-64 -65 0
-64 -66 0
-65 -66 0
-32 -65 0
-32 -66 0
-32 -70 0
-32 -71 0
-65 -66 0
-65 -70 0
-65 -71 0
-66 -70 0
-66 -71 0
-70 -71 0
-32 -67 0
-32 -68 0
-32 -69 0
-32 -70 0
-32 -71 0
-67 -68 0
-67 -69 0
-67 -70 0
-67 -71 0
-68 -69 0
-68 -70 0
-68 -71 0
-69 -70 0
-69 -71 0
-70 -71 0
-72 -73 0
-72 -74 0
-72 -77 0
-72 -78 0
-73 -74 0
-73 -77 0
-73 -78 0
-74 -77 0
-74 -78 0
-77 -78 0
-67 -72 0
-67 -73 0
-67 -74 0
-67 -75 0
-67 -76 0
-72 -73 0
-72 -74 0
-72 -75 0
-72 -76 0
-73 -74 0
-73 -75 0
-73 -76 0
-74 -75 0
-74 -76 0
-75 -76 0
-67 -75 0
-67 -76 0
-67 -79 0
-67 -80 0
-67 -81 0
-75 -76 0
-75 -79 0
-75 -80 0
-75 -81 0
-76 -79 0
-76 -80 0
-76 -81 0
-79 -80 0
-79 -81 0
-80 -81 0
-77 -78 0
-77 -79 0
-77 -80 0
-77 -81 0
-78 -79 0
-78 -80 0
-78 -81 0
-79 -80 0
-79 -81 0
-80 -81 0
-82 -83 0
-82 -84 0
-82 -87 0
-82 -88 0
-82 -89 0
-83 -84 0
-83 -87 0
-83 -88 0
-83 -89 0
-84 -87 0
-84 -88 0
-84 -89 0
-87 -88 0
-87 -89 0
-88 -89 0
-82 -83 0
-82 -84 0
-82 -85 0
-82 -86 0
-83 -84 0
-83 -85 0
-83 -86 0
-84 -85 0
-84 -86 0
-85 -86 0
-85 -86 0
-85 -90 0
-85 -91 0
-85 -92 0
-86 -90 0
-86 -91 0
-86 -92 0
-90 -91 0
-90 -92 0
-91 -92 0
-87 -88 0
-87 -89 0
-87 -90 0
-87 -91 0
-87 -92 0
-88 -89 0
-88 -90 0
-88 -91 0
-88 -92 0
-89 -90 0
-89 -91 0
-89 -92 0
-90 -91 0
-90 -92 0
-91 -92 0
-2 -93 0
-2 -94 0
-2 -95 0
-2 -99 0
-2 -100 0
-93 -94 0
-93 -95 0
-93 -99 0
-93 -100 0
-94 -95 0
-94 -99 0
-94 -100 0
-95 -99 0
-95 -100 0
-99 -100 0
-93 -94 0
-93 -95 0
-93 -96 0
-93 -97 0
-93 -98 0
-94 -95 0
-94 -96 0
-94 -97 0
-94 -98 0
-95 -96 0
-95 -97 0
-95 -98 0
-96 -97 0
-96 -98 0
-97 -98 0
-85 -96 0
-85 -97 0
-85 -98 0
-85 -101 0
-96 -97 0
-96 -98 0
-96 -101 0
-97 -98 0
-97 -101 0
-98 -101 0
-2 -85 0
-2 -99 0
-2 -100 0
-2 -101 0
-85 -99 0
-85 -100 0
-85 -101 0
-99 -100 0
-99 -101 0
-100 -101 0
-87 -102 0
-87 -103 0
-87 -105 0
-87 -106 0
-102 -103 0
-102 -105 0
-102 -106 0
-103 -105 0
-103 -106 0
-105 -106 0
-52 -102 0
-52 -103 0
-52 -104 0
-102 -103 0
-102 -104 0
-103 -104 0
-52 -104 0
-52 -107 0
-52 -108 0
-52 -109 0
-104 -107 0
-104 -108 0
-104 -109 0
-107 -108 0
-107 -109 0
-108 -109 0
-87 -105 0
-87 -106 0
-87 -107 0
-87 -108 0
-87 -109 0
-105 -106 0
-105 -107 0
-105 -108 0
-105 -109 0
-106 -107 0
-106 -108 0
-106 -109 0
-107 -108 0
-107 -109 0
-108 -109 0
-60 -110 0
-60 -114 0
-60 -115 0
-60 -116 0
-110 -114 0
-110 -115 0
-110 -116 0
-114 -115 0
-114 -116 0
-115 -116 0
-60 -110 0
-60 -111 0
-60 -112 0
-60 -113 0
-110 -111 0
-110 -112 0
-110 -113 0
-111 -112 0
-111 -113 0
-112 -113 0
-111 -112 0
-111 -113 0
-111 -117 0
-111 -118 0
-111 -119 0
-112 -113 0
-112 -117 0
-112 -118 0
-112 -119 0
-113 -117 0
-113 -118 0
-113 -119 0
-117 -118 0
-117 -119 0
-118 -119 0
-114 -115 0
-114 -116 0
-114 -117 0
-114 -118 0
-114 -119 0
-115 -116 0
-115 -117 0
-115 -118 0
-115 -119 0
-116 -117 0
-116 -118 0
-116 -119 0
-117 -118 0
-117 -119 0
-118 -119 0
-111 -120 0
-111 -121 0
-111 -123 0
-120 -121 0
-120 -123 0
-121 -123 0
-102 -120 0
-102 -121 0
-102 -122 0
-120 -121 0
-120 -122 0
-121 -122 0
-102 -122 0
-102 -124 0
-102 -125 0
-102 -126 0
-122 -124 0
-122 -125 0
-122 -126 0
-124 -125 0
-124 -126 0
-125 -126 0
-111 -123 0
-111 -124 0
-111 -125 0
-111 -126 0
-123 -124 0
-123 -125 0
-123 -126 0
-124 -125 0
-124 -126 0
-125 -126 0
-124 -127 0
-124 -130 0
-124 -131 0
-124 -132 0
-127 -130 0
-127 -131 0
-127 -132 0
-130 -131 0
-130 -132 0
-131 -132 0
-124 -127 0
-124 -128 0
-124 -129 0
-127 -128 0
-127 -129 0
-128 -129 0
-128 -129 0
-128 -133 0
-128 -134 0
-129 -133 0
-129 -134 0
-133 -134 0
-130 -131 0
-130 -132 0
-130 -133 0
-130 -134 0
-131 -132 0
-131 -133 0
-131 -134 0
-132 -133 0
-132 -134 0
-133 -134 0
-20 -135 0
-20 -137 0
-20 -138 0
-135 -137 0
-135 -138 0
-137 -138 0
-20 -68 0
-20 -112 0
-20 -135 0
-20 -136 0
-68 -112 0
-68 -135 0
-68 -136 0
-112 -135 0
-112 -136 0
-135 -136 0
-68 -112 0
-68 -136 0
-68 -139 0
-68 -140 0
-112 -136 0
-112 -139 0
-112 -140 0
-136 -139 0
-136 -140 0
-139 -140 0
-137 -138 0
-137 -139 0
-137 -140 0
-138 -139 0
-138 -140 0
-139 -140 0
-15 -141 0
-15 -144 0
-15 -145 0
-15 -146 0
-141 -144 0
-141 -145 0
-141 -146 0
-144 -145 0
-144 -146 0
-145 -146 0
-15 -141 0
-15 -142 0
-15 -143 0
-141 -142 0
-141 -143 0
-142 -143 0
-70 -142 0
-70 -143 0
-70 -147 0
-70 -148 0
-142 -143 0
-142 -147 0
-142 -148 0
-143 -147 0
-143 -148 0
-147 -148 0
-70 -144 0
-70 -145 0
-70 -146 0
-70 -147 0
-70 -148 0
-144 -145 0
-144 -146 0
-144 -147 0
-144 -148 0
-145 -146 0
-145 -147 0
-145 -148 0
-146 -147 0
-146 -148 0
-147 -148 0
-149 -150 0
-149 -151 0
-149 -154 0
-149 -155 0
-150 -151 0
-150 -154 0
-150 -155 0
-151 -154 0
-151 -155 0
-154 -155 0
-149 -150 0
-149 -151 0
-149 -152 0
-149 -153 0
-150 -151 0
-150 -152 0
-150 -153 0
-151 -152 0
-151 -153 0
-152 -153 0
-117 -152 0
-117 -153 0
-117 -156 0
-152 -153 0
-152 -156 0
-153 -156 0
-117 -154 0
-117 -155 0
-117 -156 0
-154 -155 0
-154 -156 0
-155 -156 0
-72 -82 0
-72 -157 0
-72 -161 0
-82 -157 0
-82 -161 0
-157 -161 0
-82 -157 0
-82 -158 0
-82 -159 0
-82 -160 0
-157 -158 0
-157 -159 0
-157 -160 0
-158 -159 0
-158 -160 0
-159 -160 0
-34 -107 0
-34 -158 0
-34 -159 0
-34 -160 0
-34 -162 0
-107 -158 0
-107 -159 0
-107 -160 0
-107 -162 0
-158 -159 0
-158 -160 0
-158 -162 0
-159 -160 0
-159 -162 0
-160 -162 0
-34 -72 0
-34 -107 0
-34 -161 0
-34 -162 0
-72 -107 0
-72 -161 0
-72 -162 0
-107 -161 0
-107 -162 0
-161 -162 0
-7 -163 0
-7 -164 0
-7 -167 0
-7 -168 0
-7 -169 0
-163 -164 0
-163 -167 0
-163 -168 0
-163 -169 0
-164 -167 0
-164 -168 0
-164 -169 0
-167 -168 0
-167 -169 0
-168 -169 0
-7 -163 0
-7 -164 0
-7 -165 0
-7 -166 0
-163 -164 0
-163 -165 0
-163 -166 0
-164 -165 0
-164 -166 0
-165 -166 0
-154 -165 0
-154 -166 0
-154 -170 0
-165 -166 0
-165 -170 0
-166 -170 0
-154 -167 0
-154 -168 0
-154 -169 0
-154 -170 0
-167 -168 0
-167 -169 0
-167 -170 0
-168 -169 0
-168 -170 0
-169 -170 0
-171 -172 0
-171 -173 0
-171 -176 0
-171 -177 0
-172 -173 0
-172 -176 0
-172 -177 0
-173 -176 0
-173 -177 0
-176 -177 0
-167 -171 0
-167 -172 0
-167 -173 0
-167 -174 0
-167 -175 0
-171 -172 0
-171 -173 0
-171 -174 0
-171 -175 0
-172 -173 0
-172 -174 0
-172 -175 0
-173 -174 0
-173 -175 0
-174 -175 0
-69 -167 0
-69 -174 0
-69 -175 0
-69 -178 0
-69 -179 0
-167 -174 0
-167 -175 0
-167 -178 0
-167 -179 0
-174 -175 0
-174 -178 0
-174 -179 0
-175 -178 0
-175 -179 0
-178 -179 0
-69 -176 0
-69 -177 0
-69 -178 0
-69 -179 0
-176 -177 0
-176 -178 0
-176 -179 0
-177 -178 0
-177 -179 0
-178 -179 0
-40 -180 0
-40 -181 0
-40 -184 0
-40 -185 0
-40 -186 0
-180 -181 0
-180 -184 0
-180 -185 0
-180 -186 0
-181 -184 0
-181 -185 0
-181 -186 0
-184 -185 0
-184 -186 0
-185 -186 0
-40 -180 0
-40 -181 0
-40 -182 0
-40 -183 0
-180 -181 0
-180 -182 0
-180 -183 0
-181 -182 0
-181 -183 0
-182 -183 0
-163 -182 0
-163 -183 0
-163 -187 0
-163 -188 0
-182 -183 0
-182 -187 0
-182 -188 0
-183 -187 0
-183 -188 0
-187 -188 0
-163 -184 0
-163 -185 0
-163 -186 0
-163 -187 0
-163 -188 0
-184 -185 0
-184 -186 0
-184 -187 0
-184 -188 0
-185 -186 0
-185 -187 0
-185 -188 0
-186 -187 0
-186 -188 0
-187 -188 0
-189 -190 0
-189 -191 0
-189 -194 0
-189 -195 0
-189 -196 0
-190 -191 0
-190 -194 0
-190 -195 0
-190 -196 0
-191 -194 0
-191 -195 0
-191 -196 0
-194 -195 0
-194 -196 0
-195 -196 0
-189 -190 0
-189 -191 0
-189 -192 0
-189 -193 0
-190 -191 0
-190 -192 0
-190 -193 0
-191 -192 0
-191 -193 0
-192 -193 0
-192 -193 0
-192 -197 0
-192 -198 0
-193 -197 0
-193 -198 0
-197 -198 0
-194 -195 0
-194 -196 0
-194 -197 0
-194 -198 0
-195 -196 0
-195 -197 0
-195 -198 0
-196 -197 0
-196 -198 0
-197 -198 0
-161 -199 0
-161 -200 0
-161 -203 0
-161 -204 0
-199 -200 0
-199 -203 0
-199 -204 0
-200 -203 0
-200 -204 0
-203 -204 0
-128 -161 0
-128 -199 0
-128 -200 0
-128 -201 0
-128 -202 0
-161 -199 0
-161 -200 0
-161 -201 0
-161 -202 0
-199 -200 0
-199 -201 0
-199 -202 0
-200 -201 0
-200 -202 0
-201 -202 0
-128 -201 0
-128 -202 0
-128 -205 0
-128 -206 0
-201 -202 0
-201 -205 0
-201 -206 0
-202 -205 0
-202 -206 0
-205 -206 0
-203 -204 0
-203 -205 0
-203 -206 0
-204 -205 0
-204 -206 0
-205 -206 0
-5 -178 0
-5 -184 0
-5 -207 0
-5 -211 0
-178 -184 0
-178 -207 0
-178 -211 0
-184 -207 0
-184 -211 0
-207 -211 0
-178 -184 0
-178 -207 0
-178 -208 0
-178 -209 0
-178 -210 0
-184 -207 0
-184 -208 0
-184 -209 0
-184 -210 0
-207 -208 0
-207 -209 0
-207 -210 0
-208 -209 0
-208 -210 0
-209 -210 0
-208 -209 0
-208 -210 0
-208 -212 0
-208 -213 0
-208 -214 0
-209 -210 0
-209 -212 0
-209 -213 0
-209 -214 0
-210 -212 0
-210 -213 0
-210 -214 0
-212 -213 0
-212 -214 0
-213 -214 0
-5 -211 0
-5 -212 0
-5 -213 0
-5 -214 0
-211 -212 0
-211 -213 0
-211 -214 0
-212 -213 0
-212 -214 0
-213 -214 0
-212 -215 0
-212 -216 0
-212 -218 0
-212 -219 0
-212 -220 0
-215 -216 0
-215 -218 0
-215 -219 0
-215 -220 0
-216 -218 0
-216 -219 0
-216 -220 0
-218 -219 0
-218 -220 0
-219 -220 0
-90 -149 0
-90 -212 0
-90 -215 0
-90 -216 0
-90 -217 0
-149 -212 0
-149 -215 0
-149 -216 0
-149 -217 0
-212 -215 0
-212 -216 0
-212 -217 0
-215 -216 0
-215 -217 0
-216 -217 0
-90 -149 0
-90 -217 0
-90 -221 0
-90 -222 0
-90 -223 0
-149 -217 0
-149 -221 0
-149 -222 0
-149 -223 0
-217 -221 0
-217 -222 0
-217 -223 0
-221 -222 0
-221 -223 0
-222 -223 0
-218 -219 0
-218 -220 0
-218 -221 0
-218 -222 0
-218 -223 0
-219 -220 0
-219 -221 0
-219 -222 0
-219 -223 0
-220 -221 0
-220 -222 0
-220 -223 0
-221 -222 0
-221 -223 0
-222 -223 0
-16 -162 0
-16 -224 0
-16 -225 0
-16 -228 0
-16 -229 0
-162 -224 0
-162 -225 0
-162 -228 0
-162 -229 0
-224 -225 0
-224 -228 0
-224 -229 0
-225 -228 0
-225 -229 0
-228 -229 0
-16 -42 0
-16 -224 0
-16 -225 0
-16 -226 0
-16 -227 0
-42 -224 0
-42 -225 0
-42 -226 0
-42 -227 0
-224 -225 0
-224 -226 0
-224 -227 0
-225 -226 0
-225 -227 0
-226 -227 0
-42 -185 0
-42 -226 0
-42 -227 0
-42 -230 0
-42 -231 0
-185 -226 0
-185 -227 0
-185 -230 0
-185 -231 0
-226 -227 0
-226 -230 0
-226 -231 0
-227 -230 0
-227 -231 0
-230 -231 0
-162 -185 0
-162 -228 0
-162 -229 0
-162 -230 0
-162 -231 0
-185 -228 0
-185 -229 0
-185 -230 0
-185 -231 0
-228 -229 0
-228 -230 0
-228 -231 0
-229 -230 0
-229 -231 0
-230 -231 0
-41 -232 0
-41 -233 0
-41 -234 0
-41 -237 0
-232 -233 0
-232 -234 0
-232 -237 0
-233 -234 0
-233 -237 0
-234 -237 0
-232 -233 0
-232 -234 0
-232 -235 0
-232 -236 0
-233 -234 0
-233 -235 0
-233 -236 0
-234 -235 0
-234 -236 0
-235 -236 0
-45 -144 0
-45 -235 0
-45 -236 0
-45 -238 0
-144 -235 0
-144 -236 0
-144 -238 0
-235 -236 0
-235 -238 0
-236 -238 0
-41 -45 0
-41 -144 0
-41 -237 0
-41 -238 0
-45 -144 0
-45 -237 0
-45 -238 0
-144 -237 0
-144 -238 0
-237 -238 0
-228 -239 0
-228 -240 0
-228 -244 0
-239 -240 0
-239 -244 0
-240 -244 0
-239 -240 0
-239 -241 0
-239 -242 0
-239 -243 0
-240 -241 0
-240 -242 0
-240 -243 0
-241 -242 0
-241 -243 0
-242 -243 0
-241 -242 0
-241 -243 0
-241 -245 0
-241 -246 0
-241 -247 0
-242 -243 0
-242 -245 0
-242 -246 0
-242 -247 0
-243 -245 0
-243 -246 0
-243 -247 0
-245 -246 0
-245 -247 0
-246 -247 0
-228 -244 0
-228 -245 0
-228 -246 0
-228 -247 0
-244 -245 0
-244 -246 0
-244 -247 0
-245 -246 0
-245 -247 0
-246 -247 0
-75 -99 0
-75 -248 0
-75 -250 0
-75 -251 0
-99 -248 0
-99 -250 0
-99 -251 0
-248 -250 0
-248 -251 0
-250 -251 0
-99 -237 0
-99 -248 0
-99 -249 0
-237 -248 0
-237 -249 0
-248 -249 0
-237 -249 0
-237 -252 0
-237 -253 0
-237 -254 0
-249 -252 0
-249 -253 0
-249 -254 0
-252 -253 0
-252 -254 0
-253 -254 0
-75 -250 0
-75 -251 0
-75 -252 0
-75 -253 0
-75 -254 0
-250 -251 0
-250 -252 0
-250 -253 0
-250 -254 0
-251 -252 0
-251 -253 0
-251 -254 0
-252 -253 0
-252 -254 0
-253 -254 0
-79 -194 0
-79 -221 0
-79 -255 0
-79 -258 0
-194 -221 0
-194 -255 0
-194 -258 0
-221 -255 0
-221 -258 0
-255 -258 0
-79 -255 0
-79 -256 0
-79 -257 0
-255 -256 0
-255 -257 0
-256 -257 0
-201 -256 0
-201 -257 0
-201 -259 0
-201 -260 0
-256 -257 0
-256 -259 0
-256 -260 0
-257 -259 0
-257 -260 0
-259 -260 0
-194 -201 0
-194 -221 0
-194 -258 0
-194 -259 0
-194 -260 0
-201 -221 0
-201 -258 0
-201 -259 0
-201 -260 0
-221 -258 0
-221 -259 0
-221 -260 0
-258 -259 0
-258 -260 0
-259 -260 0
-261 -262 0
-261 -265 0
-261 -266 0
-262 -265 0
-262 -266 0
-265 -266 0
-261 -262 0
-261 -263 0
-261 -264 0
-262 -263 0
-262 -264 0
-263 -264 0
-96 -263 0
-96 -264 0
-96 -267 0
-96 -268 0
-263 -264 0
-263 -267 0
-263 -268 0
-264 -267 0
-264 -268 0
-267 -268 0
-96 -265 0
-96 -266 0
-96 -267 0
-96 -268 0
-265 -266 0
-265 -267 0
-265 -268 0
-266 -267 0
-266 -268 0
-267 -268 0
-252 -263 0
-252 -269 0
-252 -270 0
-263 -269 0
-263 -270 0
-269 -270 0
-202 -269 0
-202 -270 0
-202 -271 0
-202 -272 0
-269 -270 0
-269 -271 0
-269 -272 0
-270 -271 0
-270 -272 0
-271 -272 0
-202 -218 0
-202 -271 0
-202 -272 0
-202 -273 0
-202 -274 0
-218 -271 0
-218 -272 0
-218 -273 0
-218 -274 0
-271 -272 0
-271 -273 0
-271 -274 0
-272 -273 0
-272 -274 0
-273 -274 0
-218 -252 0
-218 -263 0
-218 -273 0
-218 -274 0
-252 -263 0
-252 -273 0
-252 -274 0
-263 -273 0
-263 -274 0
-273 -274 0
-275 -276 0
-275 -279 0
-275 -280 0
-276 -279 0
-276 -280 0
-279 -280 0
-275 -276 0
-275 -277 0
-275 -278 0
-276 -277 0
-276 -278 0
-277 -278 0
-259 -277 0
-259 -278 0
-259 -281 0
-259 -282 0
-277 -278 0
-277 -281 0
-277 -282 0
-278 -281 0
-278 -282 0
-281 -282 0
-259 -279 0
-259 -280 0
-259 -281 0
-259 -282 0
-279 -280 0
-279 -281 0
-279 -282 0
-280 -281 0
-280 -282 0
-281 -282 0
-24 -235 0
-24 -283 0
-24 -284 0
-24 -287 0
-24 -288 0
-235 -283 0
-235 -284 0
-235 -287 0
-235 -288 0
-283 -284 0
-283 -287 0
-283 -288 0
-284 -287 0
-284 -288 0
-287 -288 0
-24 -36 0
-24 -283 0
-24 -284 0
-24 -285 0
-24 -286 0
-36 -283 0
-36 -284 0
-36 -285 0
-36 -286 0
-283 -284 0
-283 -285 0
-283 -286 0
-284 -285 0
-284 -286 0
-285 -286 0
-36 -208 0
-36 -229 0
-36 -285 0
-36 -286 0
-36 -289 0
-208 -229 0
-208 -285 0
-208 -286 0
-208 -289 0
-229 -285 0
-229 -286 0
-229 -289 0
-285 -286 0
-285 -289 0
-286 -289 0
-208 -229 0
-208 -235 0
-208 -287 0
-208 -288 0
-208 -289 0
-229 -235 0
-229 -287 0
-229 -288 0
-229 -289 0
-235 -287 0
-235 -288 0
-235 -289 0
-287 -288 0
-287 -289 0
-288 -289 0
-73 -145 0
-73 -290 0
-73 -291 0
-73 -294 0
-73 -295 0
-145 -290 0
-145 -291 0
-145 -294 0
-145 -295 0
-290 -291 0
-290 -294 0
-290 -295 0
-291 -294 0
-291 -295 0
-294 -295 0
-145 -290 0
-145 -291 0
-145 -292 0
-145 -293 0
-290 -291 0
-290 -292 0
-290 -293 0
-291 -292 0
-291 -293 0
-292 -293 0
-30 -127 0
-30 -292 0
-30 -293 0
-127 -292 0
-127 -293 0
-292 -293 0
-30 -73 0
-30 -127 0
-30 -294 0
-30 -295 0
-73 -127 0
-73 -294 0
-73 -295 0
-127 -294 0
-127 -295 0
-294 -295 0
-17 -273 0
-17 -296 0
-17 -299 0
-273 -296 0
-273 -299 0
-296 -299 0
-17 -296 0
-17 -297 0
-17 -298 0
-296 -297 0
-296 -298 0
-297 -298 0
-297 -298 0
-297 -300 0
-297 -301 0
-297 -302 0
-298 -300 0
-298 -301 0
-298 -302 0
-300 -301 0
-300 -302 0
-301 -302 0
-273 -299 0
-273 -300 0
-273 -301 0
-273 -302 0
-299 -300 0
-299 -301 0
-299 -302 0
-300 -301 0
-300 -302 0
-301 -302 0
-33 -165 0
-33 -303 0
-33 -304 0
-33 -305 0
-33 -307 0
-165 -303 0
-165 -304 0
-165 -305 0
-165 -307 0
-303 -304 0
-303 -305 0
-303 -307 0
-304 -305 0
-304 -307 0
-305 -307 0
-142 -303 0
-142 -304 0
-142 -305 0
-142 -306 0
-303 -304 0
-303 -305 0
-303 -306 0
-304 -305 0
-304 -306 0
-305 -306 0
-142 -306 0
-142 -308 0
-142 -309 0
-306 -308 0
-306 -309 0
-308 -309 0
-33 -165 0
-33 -307 0
-33 -308 0
-33 -309 0
-165 -307 0
-165 -308 0
-165 -309 0
-307 -308 0
-307 -309 0
-308 -309 0
-39 -256 0
-39 -310 0
-39 -313 0
-39 -314 0
-256 -310 0
-256 -313 0
-256 -314 0
-310 -313 0
-310 -314 0
-313 -314 0
-39 -310 0
-39 -311 0
-39 -312 0
-310 -311 0
-310 -312 0
-311 -312 0
-238 -311 0
-238 -312 0
-238 -315 0
-238 -316 0
-311 -312 0
-311 -315 0
-311 -316 0
-312 -315 0
-312 -316 0
-315 -316 0
-238 -256 0
-238 -313 0
-238 -314 0
-238 -315 0
-238 -316 0
-256 -313 0
-256 -314 0
-256 -315 0
-256 -316 0
-313 -314 0
-313 -315 0
-313 -316 0
-314 -315 0
-314 -316 0
-315 -316 0
-130 -294 0
-130 -317 0
-130 -318 0
-130 -321 0
-294 -317 0
-294 -318 0
-294 -321 0
-317 -318 0
-317 -321 0
-318 -321 0
-130 -156 0
-130 -317 0
-130 -318 0
-130 -319 0
-130 -320 0
-156 -317 0
-156 -318 0
-156 -319 0
-156 -320 0
-317 -318 0
-317 -319 0
-317 -320 0
-318 -319 0
-318 -320 0
-319 -320 0
-43 -156 0
-43 -319 0
-43 -320 0
-43 -322 0
-156 -319 0
-156 -320 0
-156 -322 0
-319 -320 0
-319 -322 0
-320 -322 0
-43 -294 0
-43 -321 0
-43 -322 0
-294 -321 0
-294 -322 0
-321 -322 0
-76 -275 0
-76 -317 0
-76 -324 0
-76 -325 0
-275 -317 0
-275 -324 0
-275 -325 0
-317 -324 0
-317 -325 0
-324 -325 0
-76 -205 0
-76 -275 0
-76 -323 0
-205 -275 0
-205 -323 0
-275 -323 0
-113 -205 0
-113 -308 0
-113 -323 0
-113 -326 0
-205 -308 0
-205 -323 0
-205 -326 0
-308 -323 0
-308 -326 0
-323 -326 0
-113 -308 0
-113 -317 0
-113 -324 0
-113 -325 0
-113 -326 0
-308 -317 0
-308 -324 0
-308 -325 0
-308 -326 0
-317 -324 0
-317 -325 0
-317 -326 0
-324 -325 0
-324 -326 0
-325 -326 0
-150 -158 0
-150 -174 0
-150 -215 0
-150 -313 0
-150 -328 0
-158 -174 0
-158 -215 0
-158 -313 0
-158 -328 0
-174 -215 0
-174 -313 0
-174 -328 0
-215 -313 0
-215 -328 0
-313 -328 0
-74 -150 0
-74 -158 0
-74 -313 0
-74 -327 0
-150 -158 0
-150 -313 0
-150 -327 0
-158 -313 0
-158 -327 0
-313 -327 0
-74 -327 0
-74 -329 0
-74 -330 0
-327 -329 0
-327 -330 0
-329 -330 0
-174 -215 0
-174 -328 0
-174 -329 0
-174 -330 0
-215 -328 0
-215 -329 0
-215 -330 0
-328 -329 0
-328 -330 0
-329 -330 0
-331 -332 0
-331 -335 0
-331 -336 0
-332 -335 0
-332 -336 0
-335 -336 0
-287 -331 0
-287 -332 0
-287 -333 0
-287 -334 0
-331 -332 0
-331 -333 0
-331 -334 0
-332 -333 0
-332 -334 0
-333 -334 0
-18 -287 0
-18 -333 0
-18 -334 0
-18 -337 0
-18 -338 0
-287 -333 0
-287 -334 0
-287 -337 0
-287 -338 0
-333 -334 0
-333 -337 0
-333 -338 0
-334 -337 0
-334 -338 0
-337 -338 0
-18 -335 0
-18 -336 0
-18 -337 0
-18 -338 0
-335 -336 0
-335 -337 0
-335 -338 0
-336 -337 0
-336 -338 0
-337 -338 0
-311 -339 0
-311 -340 0
-311 -343 0
-339 -340 0
-339 -343 0
-340 -343 0
-86 -339 0
-86 -340 0
-86 -341 0
-86 -342 0
-339 -340 0
-339 -341 0
-339 -342 0
-340 -341 0
-340 -342 0
-341 -342 0
-9 -86 0
-9 -341 0
-9 -342 0
-9 -344 0
-9 -345 0
-86 -341 0
-86 -342 0
-86 -344 0
-86 -345 0
-341 -342 0
-341 -344 0
-341 -345 0
-342 -344 0
-342 -345 0
-344 -345 0
-9 -311 0
-9 -343 0
-9 -344 0
-9 -345 0
-311 -343 0
-311 -344 0
-311 -345 0
-343 -344 0
-343 -345 0
-344 -345 0
-50 -346 0
-50 -347 0
-50 -348 0
-50 -349 0
-50 -350 0
-346 -347 0
-346 -348 0
-346 -349 0
-346 -350 0
-347 -348 0
-347 -349 0
-347 -350 0
-348 -349 0
-348 -350 0
-349 -350 0
-141 -290 0
-141 -346 0
-141 -347 0
-141 -348 0
-290 -346 0
-290 -347 0
-290 -348 0
-346 -347 0
-346 -348 0
-347 -348 0
-137 -141 0
-137 -261 0
-137 -290 0
-141 -261 0
-141 -290 0
-261 -290 0
-50 -137 0
-50 -261 0
-50 -349 0
-50 -350 0
-137 -261 0
-137 -349 0
-137 -350 0
-261 -349 0
-261 -350 0
-349 -350 0
-25 -71 0
-25 -351 0
-25 -352 0
-25 -356 0
-25 -357 0
-71 -351 0
-71 -352 0
-71 -356 0
-71 -357 0
-351 -352 0
-351 -356 0
-351 -357 0
-352 -356 0
-352 -357 0
-356 -357 0
-25 -351 0
-25 -352 0
-25 -353 0
-25 -354 0
-25 -355 0
-351 -352 0
-351 -353 0
-351 -354 0
-351 -355 0
-352 -353 0
-352 -354 0
-352 -355 0
-353 -354 0
-353 -355 0
-354 -355 0
-232 -333 0
-232 -353 0
-232 -354 0
-232 -355 0
-232 -358 0
-333 -353 0
-333 -354 0
-333 -355 0
-333 -358 0
-353 -354 0
-353 -355 0
-353 -358 0
-354 -355 0
-354 -358 0
-355 -358 0
-71 -232 0
-71 -333 0
-71 -356 0
-71 -357 0
-71 -358 0
-232 -333 0
-232 -356 0
-232 -357 0
-232 -358 0
-333 -356 0
-333 -357 0
-333 -358 0
-356 -357 0
-356 -358 0
-357 -358 0
-146 -187 0
-146 -359 0
-146 -362 0
-146 -363 0
-187 -359 0
-187 -362 0
-187 -363 0
-359 -362 0
-359 -363 0
-362 -363 0
-146 -359 0
-146 -360 0
-146 -361 0
-359 -360 0
-359 -361 0
-360 -361 0
-346 -360 0
-346 -361 0
-346 -364 0
-346 -365 0
-360 -361 0
-360 -364 0
-360 -365 0
-361 -364 0
-361 -365 0
-364 -365 0
-187 -346 0
-187 -362 0
-187 -363 0
-187 -364 0
-187 -365 0
-346 -362 0
-346 -363 0
-346 -364 0
-346 -365 0
-362 -363 0
-362 -364 0
-362 -365 0
-363 -364 0
-363 -365 0
-364 -365 0
-344 -366 0
-344 -367 0
-344 -369 0
-366 -367 0
-366 -369 0
-367 -369 0
-189 -279 0
-189 -366 0
-189 -367 0
-189 -368 0
-279 -366 0
-279 -367 0
-279 -368 0
-366 -367 0
-366 -368 0
-367 -368 0
-189 -260 0
-189 -279 0
-189 -368 0
-189 -370 0
-189 -371 0
-260 -279 0
-260 -368 0
-260 -370 0
-260 -371 0
-279 -368 0
-279 -370 0
-279 -371 0
-368 -370 0
-368 -371 0
-370 -371 0
-260 -344 0
-260 -369 0
-260 -370 0
-260 -371 0
-344 -369 0
-344 -370 0
-344 -371 0
-369 -370 0
-369 -371 0
-370 -371 0
-6 -91 0
-6 -129 0
-6 -372 0
-6 -373 0
-91 -129 0
-91 -372 0
-91 -373 0
-129 -372 0
-129 -373 0
-372 -373 0
-51 -77 0
-51 -91 0
-51 -129 0
-51 -372 0
-77 -91 0
-77 -129 0
-77 -372 0
-91 -129 0
-91 -372 0
-129 -372 0
-51 -77 0
-51 -241 0
-51 -374 0
-77 -241 0
-77 -374 0
-241 -374 0
-6 -241 0
-6 -373 0
-6 -374 0
-241 -373 0
-241 -374 0
-373 -374 0
-92 -180 0
-92 -375 0
-92 -378 0
-180 -375 0
-180 -378 0
-375 -378 0
-92 -203 0
-92 -375 0
-92 -376 0
-92 -377 0
-203 -375 0
-203 -376 0
-203 -377 0
-375 -376 0
-375 -377 0
-376 -377 0
-203 -233 0
-203 -376 0
-203 -377 0
-203 -379 0
-233 -376 0
-233 -377 0
-233 -379 0
-376 -377 0
-376 -379 0
-377 -379 0
-180 -233 0
-180 -378 0
-180 -379 0
-233 -378 0
-233 -379 0
-378 -379 0
-370 -380 0
-370 -381 0
-370 -383 0
-370 -384 0
-380 -381 0
-380 -383 0
-380 -384 0
-381 -383 0
-381 -384 0
-383 -384 0
-219 -380 0
-219 -381 0
-219 -382 0
-380 -381 0
-380 -382 0
-381 -382 0
-219 -276 0
-219 -339 0
-219 -382 0
-276 -339 0
-276 -382 0
-339 -382 0
-276 -339 0
-276 -370 0
-276 -383 0
-276 -384 0
-339 -370 0
-339 -383 0
-339 -384 0
-370 -383 0
-370 -384 0
-383 -384 0
-309 -385 0
-309 -387 0
-309 -388 0
-309 -389 0
-385 -387 0
-385 -388 0
-385 -389 0
-387 -388 0
-387 -389 0
-388 -389 0
-239 -309 0
-239 -385 0
-239 -386 0
-309 -385 0
-309 -386 0
-385 -386 0
-239 -386 0
-239 -390 0
-239 -391 0
-386 -390 0
-386 -391 0
-390 -391 0
-387 -388 0
-387 -389 0
-387 -390 0
-387 -391 0
-388 -389 0
-388 -390 0
-388 -391 0
-389 -390 0
-389 -391 0
-390 -391 0
-104 -369 0
-104 -392 0
-104 -393 0
-104 -396 0
-369 -392 0
-369 -393 0
-369 -396 0
-392 -393 0
-392 -396 0
-393 -396 0
-164 -392 0
-164 -393 0
-164 -394 0
-164 -395 0
-392 -393 0
-392 -394 0
-392 -395 0
-393 -394 0
-393 -395 0
-394 -395 0
-164 -186 0
-164 -351 0
-164 -394 0
-164 -395 0
-164 -397 0
-186 -351 0
-186 -394 0
-186 -395 0
-186 -397 0
-351 -394 0
-351 -395 0
-351 -397 0
-394 -395 0
-394 -397 0
-395 -397 0
-104 -186 0
-104 -351 0
-104 -369 0
-104 -396 0
-104 -397 0
-186 -351 0
-186 -369 0
-186 -396 0
-186 -397 0
-351 -369 0
-351 -396 0
-351 -397 0
-369 -396 0
-369 -397 0
-396 -397 0
-274 -345 0
-274 -398 0
-274 -399 0
-274 -401 0
-345 -398 0
-345 -399 0
-345 -401 0
-398 -399 0
-398 -401 0
-399 -401 0
-245 -371 0
-245 -398 0
-245 -399 0
-245 -400 0
-371 -398 0
-371 -399 0
-371 -400 0
-398 -399 0
-398 -400 0
-399 -400 0
-245 -327 0
-245 -353 0
-245 -371 0
-245 -400 0
-327 -353 0
-327 -371 0
-327 -400 0
-353 -371 0
-353 -400 0
-371 -400 0
-274 -327 0
-274 -345 0
-274 -353 0
-274 -401 0
-327 -345 0
-327 -353 0
-327 -401 0
-345 -353 0
-345 -401 0
-353 -401 0
-396 -402 0
-396 -403 0
-396 -406 0
-396 -407 0
-402 -403 0
-402 -406 0
-402 -407 0
-403 -406 0
-403 -407 0
-406 -407 0
-402 -403 0
-402 -404 0
-402 -405 0
-403 -404 0
-403 -405 0
-404 -405 0
-131 -404 0
-131 -405 0
-131 -408 0
-131 -409 0
-404 -405 0
-404 -408 0
-404 -409 0
-405 -408 0
-405 -409 0
-408 -409 0
-131 -396 0
-131 -406 0
-131 -407 0
-131 -408 0
-131 -409 0
-396 -406 0
-396 -407 0
-396 -408 0
-396 -409 0
-406 -407 0
-406 -408 0
-406 -409 0
-407 -408 0
-407 -409 0
-408 -409 0
-195 -222 0
-195 -242 0
-195 -410 0
-195 -412 0
-222 -242 0
-222 -410 0
-222 -412 0
-242 -410 0
-242 -412 0
-410 -412 0
-105 -195 0
-105 -242 0
-105 -312 0
-105 -410 0
-105 -411 0
-195 -242 0
-195 -312 0
-195 -410 0
-195 -411 0
-242 -312 0
-242 -410 0
-242 -411 0
-312 -410 0
-312 -411 0
-410 -411 0
-100 -105 0
-100 -312 0
-100 -356 0
-100 -382 0
-100 -411 0
-105 -312 0
-105 -356 0
-105 -382 0
-105 -411 0
-312 -356 0
-312 -382 0
-312 -411 0
-356 -382 0
-356 -411 0
-382 -411 0
-100 -222 0
-100 -356 0
-100 -382 0
-100 -412 0
-222 -356 0
-222 -382 0
-222 -412 0
-356 -382 0
-356 -412 0
-382 -412 0
-35 -44 0
-35 -108 0
-35 -303 0
-35 -331 0
-44 -108 0
-44 -303 0
-44 -331 0
-108 -303 0
-108 -331 0
-303 -331 0
-35 -303 0
-35 -321 0
-35 -331 0
-35 -392 0
-303 -321 0
-303 -331 0
-303 -392 0
-321 -331 0
-321 -392 0
-331 -392 0
-321 -341 0
-321 -392 0
-321 -413 0
-321 -414 0
-341 -392 0
-341 -413 0
-341 -414 0
-392 -413 0
-392 -414 0
-413 -414 0
-44 -108 0
-44 -341 0
-44 -413 0
-44 -414 0
-108 -341 0
-108 -413 0
-108 -414 0
-341 -413 0
-341 -414 0
-413 -414 0
-415 -416 0
-415 -418 0
-415 -419 0
-416 -418 0
-416 -419 0
-418 -419 0
-335 -415 0
-335 -416 0
-335 -417 0
-415 -416 0
-415 -417 0
-416 -417 0
-304 -335 0
-304 -417 0
-304 -420 0
-304 -421 0
-335 -417 0
-335 -420 0
-335 -421 0
-417 -420 0
-417 -421 0
-420 -421 0
-304 -418 0
-304 -419 0
-304 -420 0
-304 -421 0
-418 -419 0
-418 -420 0
-418 -421 0
-419 -420 0
-419 -421 0
-420 -421 0
-27 -65 0
-27 -422 0
-27 -424 0
-65 -422 0
-65 -424 0
-422 -424 0
-65 -376 0
-65 -422 0
-65 -423 0
-376 -422 0
-376 -423 0
-422 -423 0
-291 -376 0
-291 -423 0
-291 -425 0
-291 -426 0
-376 -423 0
-376 -425 0
-376 -426 0
-423 -425 0
-423 -426 0
-425 -426 0
-27 -291 0
-27 -424 0
-27 -425 0
-27 -426 0
-291 -424 0
-291 -425 0
-291 -426 0
-424 -425 0
-424 -426 0
-425 -426 0
-23 -48 0
-23 -88 0
-23 -430 0
-23 -431 0
-23 -432 0
-48 -88 0
-48 -430 0
-48 -431 0
-48 -432 0
-88 -430 0
-88 -431 0
-88 -432 0
-430 -431 0
-430 -432 0
-431 -432 0
-23 -48 0
-23 -88 0
-23 -427 0
-23 -428 0
-23 -429 0
-48 -88 0
-48 -427 0
-48 -428 0
-48 -429 0
-88 -427 0
-88 -428 0
-88 -429 0
-427 -428 0
-427 -429 0
-428 -429 0
-188 -427 0
-188 -428 0
-188 -429 0
-188 -433 0
-427 -428 0
-427 -429 0
-427 -433 0
-428 -429 0
-428 -433 0
-429 -433 0
-188 -430 0
-188 -431 0
-188 -432 0
-188 -433 0
-430 -431 0
-430 -432 0
-430 -433 0
-431 -432 0
-431 -433 0
-432 -433 0
-315 -434 0
-315 -435 0
-315 -438 0
-315 -439 0
-434 -435 0
-434 -438 0
-434 -439 0
-435 -438 0
-435 -439 0
-438 -439 0
-315 -434 0
-315 -435 0
-315 -436 0
-315 -437 0
-434 -435 0
-434 -436 0
-434 -437 0
-435 -436 0
-435 -437 0
-436 -437 0
-168 -224 0
-168 -436 0
-168 -437 0
-224 -436 0
-224 -437 0
-436 -437 0
-168 -224 0
-168 -438 0
-168 -439 0
-224 -438 0
-224 -439 0
-438 -439 0
-190 -342 0
-190 -412 0
-190 -440 0
-342 -412 0
-342 -440 0
-412 -440 0
-190 -386 0
-190 -440 0
-190 -441 0
-386 -440 0
-386 -441 0
-440 -441 0
-53 -368 0
-53 -386 0
-53 -441 0
-53 -442 0
-368 -386 0
-368 -441 0
-368 -442 0
-386 -441 0
-386 -442 0
-441 -442 0
-53 -342 0
-53 -368 0
-53 -412 0
-53 -442 0
-342 -368 0
-342 -412 0
-342 -442 0
-368 -412 0
-368 -442 0
-412 -442 0
-243 -285 0
-243 -300 0
-243 -443 0
-243 -444 0
-285 -300 0
-285 -443 0
-285 -444 0
-300 -443 0
-300 -444 0
-443 -444 0
-114 -285 0
-114 -390 0
-114 -443 0
-285 -390 0
-285 -443 0
-390 -443 0
-114 -155 0
-114 -390 0
-114 -445 0
-155 -390 0
-155 -445 0
-390 -445 0
-155 -243 0
-155 -300 0
-155 -444 0
-155 -445 0
-243 -300 0
-243 -444 0
-243 -445 0
-300 -444 0
-300 -445 0
-444 -445 0
-49 -322 0
-49 -446 0
-49 -447 0
-49 -449 0
-322 -446 0
-322 -447 0
-322 -449 0
-446 -447 0
-446 -449 0
-447 -449 0
-271 -322 0
-271 -446 0
-271 -447 0
-271 -448 0
-322 -446 0
-322 -447 0
-322 -448 0
-446 -447 0
-446 -448 0
-447 -448 0
-80 -271 0
-80 -434 0
-80 -448 0
-271 -434 0
-271 -448 0
-434 -448 0
-49 -80 0
-49 -434 0
-49 -449 0
-80 -434 0
-80 -449 0
-434 -449 0
-211 -436 0
-211 -450 0
-211 -452 0
-436 -450 0
-436 -452 0
-450 -452 0
-125 -413 0
-125 -436 0
-125 -450 0
-125 -451 0
-413 -436 0
-413 -450 0
-413 -451 0
-436 -450 0
-436 -451 0
-450 -451 0
-125 -255 0
-125 -319 0
-125 -413 0
-125 -451 0
-255 -319 0
-255 -413 0
-255 -451 0
-319 -413 0
-319 -451 0
-413 -451 0
-211 -255 0
-211 -319 0
-211 -452 0
-255 -319 0
-255 -452 0
-319 -452 0
-250 -337 0
-250 -404 0
-250 -453 0
-250 -455 0
-250 -456 0
-337 -404 0
-337 -453 0
-337 -455 0
-337 -456 0
-404 -453 0
-404 -455 0
-404 -456 0
-453 -455 0
-453 -456 0
-455 -456 0
-81 -250 0
-81 -404 0
-81 -415 0
-81 -453 0
-81 -454 0
-250 -404 0
-250 -415 0
-250 -453 0
-250 -454 0
-404 -415 0
-404 -453 0
-404 -454 0
-415 -453 0
-415 -454 0
-453 -454 0
-81 -118 0
-81 -401 0
-81 -415 0
-81 -454 0
-81 -457 0
-118 -401 0
-118 -415 0
-118 -454 0
-118 -457 0
-401 -415 0
-401 -454 0
-401 -457 0
-415 -454 0
-415 -457 0
-454 -457 0
-118 -337 0
-118 -401 0
-118 -455 0
-118 -456 0
-118 -457 0
-337 -401 0
-337 -455 0
-337 -456 0
-337 -457 0
-401 -455 0
-401 -456 0
-401 -457 0
-455 -456 0
-455 -457 0
-456 -457 0
-97 -138 0
-97 -217 0
-97 -458 0
-97 -459 0
-138 -217 0
-138 -458 0
-138 -459 0
-217 -458 0
-217 -459 0
-458 -459 0
-217 -289 0
-217 -450 0
-217 -458 0
-217 -459 0
-289 -450 0
-289 -458 0
-289 -459 0
-450 -458 0
-450 -459 0
-458 -459 0
-122 -159 0
-122 -289 0
-122 -450 0
-122 -460 0
-159 -289 0
-159 -450 0
-159 -460 0
-289 -450 0
-289 -460 0
-450 -460 0
-97 -122 0
-97 -138 0
-97 -159 0
-97 -460 0
-122 -138 0
-122 -159 0
-122 -460 0
-138 -159 0
-138 -460 0
-159 -460 0
-61 -98 0
-61 -240 0
-61 -299 0
-61 -461 0
-61 -462 0
-98 -240 0
-98 -299 0
-98 -461 0
-98 -462 0
-240 -299 0
-240 -461 0
-240 -462 0
-299 -461 0
-299 -462 0
-461 -462 0
-21 -61 0
-21 -119 0
-21 -240 0
-21 -461 0
-61 -119 0
-61 -240 0
-61 -461 0
-119 -240 0
-119 -461 0
-240 -461 0
-21 -119 0
-21 -364 0
-21 -463 0
-119 -364 0
-119 -463 0
-364 -463 0
-98 -299 0
-98 -364 0
-98 -462 0
-98 -463 0
-299 -364 0
-299 -462 0
-299 -463 0
-364 -462 0
-364 -463 0
-462 -463 0
-169 -192 0
-169 -253 0
-169 -328 0
-169 -332 0
-169 -418 0
-192 -253 0
-192 -328 0
-192 -332 0
-192 -418 0
-253 -328 0
-253 -332 0
-253 -418 0
-328 -332 0
-328 -418 0
-332 -418 0
-135 -192 0
-135 -253 0
-135 -332 0
-135 -464 0
-192 -253 0
-192 -332 0
-192 -464 0
-253 -332 0
-253 -464 0
-332 -464 0
-126 -135 0
-126 -359 0
-126 -464 0
-135 -359 0
-135 -464 0
-359 -464 0
-126 -169 0
-126 -328 0
-126 -359 0
-126 -418 0
-169 -328 0
-169 -359 0
-169 -418 0
-328 -359 0
-328 -418 0
-359 -418 0
-93 -375 0
-93 -465 0
-93 -467 0
-93 -468 0
-375 -465 0
-375 -467 0
-375 -468 0
-465 -467 0
-465 -468 0
-467 -468 0
-93 -175 0
-93 -453 0
-93 -465 0
-93 -466 0
-175 -453 0
-175 -465 0
-175 -466 0
-453 -465 0
-453 -466 0
-465 -466 0
-175 -402 0
-175 -425 0
-175 -446 0
-175 -453 0
-175 -466 0
-402 -425 0
-402 -446 0
-402 -453 0
-402 -466 0
-425 -446 0
-425 -453 0
-425 -466 0
-446 -453 0
-446 -466 0
-453 -466 0
-375 -402 0
-375 -425 0
-375 -446 0
-375 -467 0
-375 -468 0
-402 -425 0
-402 -446 0
-402 -467 0
-402 -468 0
-425 -446 0
-425 -467 0
-425 -468 0
-446 -467 0
-446 -468 0
-467 -468 0
-63 -280 0
-63 -416 0
-63 -469 0
-63 -471 0
-280 -416 0
-280 -469 0
-280 -471 0
-416 -469 0
-416 -471 0
-469 -471 0
-63 -394 0
-63 -416 0
-63 -469 0
-63 -470 0
-394 -416 0
-394 -469 0
-394 -470 0
-416 -469 0
-416 -470 0
-469 -470 0
-133 -394 0
-133 -470 0
-133 -472 0
-394 -470 0
-394 -472 0
-470 -472 0
-133 -280 0
-133 -471 0
-133 -472 0
-280 -471 0
-280 -472 0
-471 -472 0
-226 -307 0
-226 -373 0
-226 -461 0
-226 -473 0
-226 -474 0
-307 -373 0
-307 -461 0
-307 -473 0
-307 -474 0
-373 -461 0
-373 -473 0
-373 -474 0
-461 -473 0
-461 -474 0
-473 -474 0
-109 -307 0
-109 -373 0
-109 -437 0
-109 -473 0
-307 -373 0
-307 -437 0
-307 -473 0
-373 -437 0
-373 -473 0
-437 -473 0
-109 -329 0
-109 -437 0
-109 -475 0
-329 -437 0
-329 -475 0
-437 -475 0
-226 -329 0
-226 -461 0
-226 -474 0
-226 -475 0
-329 -461 0
-329 -474 0
-329 -475 0
-461 -474 0
-461 -475 0
-474 -475 0
-209 -301 0
-209 -452 0
-209 -477 0
-301 -452 0
-301 -477 0
-452 -477 0
-57 -83 0
-57 -209 0
-57 -452 0
-57 -476 0
-83 -209 0
-83 -452 0
-83 -476 0
-209 -452 0
-209 -476 0
-452 -476 0
-57 -83 0
-57 -476 0
-57 -478 0
-57 -479 0
-83 -476 0
-83 -478 0
-83 -479 0
-476 -478 0
-476 -479 0
-478 -479 0
-301 -477 0
-301 -478 0
-301 -479 0
-477 -478 0
-477 -479 0
-478 -479 0
-3 -78 0
-3 -227 0
-3 -462 0
-78 -227 0
-78 -462 0
-227 -462 0
-227 -430 0
-227 -462 0
-227 -480 0
-430 -462 0
-430 -480 0
-462 -480 0
-302 -430 0
-302 -480 0
-302 -481 0
-430 -480 0
-430 -481 0
-480 -481 0
-3 -78 0
-3 -302 0
-3 -481 0
-78 -302 0
-78 -481 0
-302 -481 0
-58 -115 0
-58 -292 0
-58 -410 0
-58 -478 0
-58 -482 0
-115 -292 0
-115 -410 0
-115 -478 0
-115 -482 0
-292 -410 0
-292 -478 0
-292 -482 0
-410 -478 0
-410 -482 0
-478 -482 0
-58 -281 0
-58 -292 0
-58 -297 0
-58 -408 0
-58 -410 0
-281 -292 0
-281 -297 0
-281 -408 0
-281 -410 0
-292 -297 0
-292 -408 0
-292 -410 0
-297 -408 0
-297 -410 0
-408 -410 0
-254 -262 0
-254 -281 0
-254 -297 0
-254 -408 0
-262 -281 0
-262 -297 0
-262 -408 0
-281 -297 0
-281 -408 0
-297 -408 0
-115 -254 0
-115 -262 0
-115 -478 0
-115 -482 0
-254 -262 0
-254 -478 0
-254 -482 0
-262 -478 0
-262 -482 0
-478 -482 0
-64 -199 0
-64 -360 0
-64 -482 0
-64 -483 0
-199 -360 0
-199 -482 0
-199 -483 0
-360 -482 0
-360 -483 0
-482 -483 0
-26 -152 0
-26 -360 0
-26 -483 0
-26 -484 0
-152 -360 0
-152 -483 0
-152 -484 0
-360 -483 0
-360 -484 0
-483 -484 0
-26 -152 0
-26 -216 0
-26 -236 0
-26 -306 0
-26 -484 0
-152 -216 0
-152 -236 0
-152 -306 0
-152 -484 0
-216 -236 0
-216 -306 0
-216 -484 0
-236 -306 0
-236 -484 0
-306 -484 0
-64 -199 0
-64 -216 0
-64 -236 0
-64 -306 0
-64 -482 0
-199 -216 0
-199 -236 0
-199 -306 0
-199 -482 0
-216 -236 0
-216 -306 0
-216 -482 0
-236 -306 0
-236 -482 0
-306 -482 0
-139 -372 0
-139 -398 0
-139 -426 0
-139 -448 0
-372 -398 0
-372 -426 0
-372 -448 0
-398 -426 0
-398 -448 0
-426 -448 0
-179 -277 0
-179 -372 0
-179 -398 0
-179 -426 0
-277 -372 0
-277 -398 0
-277 -426 0
-372 -398 0
-372 -426 0
-398 -426 0
-46 -110 0
-46 -179 0
-46 -277 0
-46 -484 0
-110 -179 0
-110 -277 0
-110 -484 0
-179 -277 0
-179 -484 0
-277 -484 0
-46 -110 0
-46 -139 0
-46 -448 0
-46 -484 0
-110 -139 0
-110 -448 0
-110 -484 0
-139 -448 0
-139 -484 0
-448 -484 0
-59 -223 0
-59 -265 0
-59 -286 0
-59 -349 0
-59 -409 0
-223 -265 0
-223 -286 0
-223 -349 0
-223 -409 0
-265 -286 0
-265 -349 0
-265 -409 0
-286 -349 0
-286 -409 0
-349 -409 0
-248 -265 0
-248 -349 0
-248 -409 0
-248 -419 0
-248 -469 0
-265 -349 0
-265 -409 0
-265 -419 0
-265 -469 0
-349 -409 0
-349 -419 0
-349 -469 0
-409 -419 0
-409 -469 0
-419 -469 0
-248 -318 0
-248 -354 0
-248 -419 0
-248 -469 0
-318 -354 0
-318 -419 0
-318 -469 0
-354 -419 0
-354 -469 0
-419 -469 0
-59 -223 0
-59 -286 0
-59 -318 0
-59 -354 0
-223 -286 0
-223 -318 0
-223 -354 0
-286 -318 0
-286 -354 0
-318 -354 0
-176 -246 0
-176 -357 0
-176 -383 0
-176 -440 0
-246 -357 0
-246 -383 0
-246 -440 0
-357 -383 0
-357 -440 0
-383 -440 0
-134 -246 0
-134 -383 0
-134 -431 0
-134 -440 0
-134 -485 0
-246 -383 0
-246 -431 0
-246 -440 0
-246 -485 0
-383 -431 0
-383 -440 0
-383 -485 0
-431 -440 0
-431 -485 0
-440 -485 0
-120 -134 0
-120 -181 0
-120 -206 0
-120 -431 0
-120 -485 0
-134 -181 0
-134 -206 0
-134 -431 0
-134 -485 0
-181 -206 0
-181 -431 0
-181 -485 0
-206 -431 0
-206 -485 0
-431 -485 0
-120 -176 0
-120 -181 0
-120 -206 0
-120 -357 0
-176 -181 0
-176 -206 0
-176 -357 0
-181 -206 0
-181 -357 0
-206 -357 0
-213 -230 0
-213 -266 0
-213 -465 0
-230 -266 0
-230 -465 0
-266 -465 0
-37 -213 0
-37 -266 0
-37 -385 0
-213 -266 0
-213 -385 0
-266 -385 0
-37 -385 0
-37 -486 0
-37 -487 0
-385 -486 0
-385 -487 0
-486 -487 0
-230 -465 0
-230 -486 0
-230 -487 0
-465 -486 0
-465 -487 0
-486 -487 0
-191 -427 0
-191 -438 0
-191 -445 0
-191 -488 0
-427 -438 0
-427 -445 0
-427 -488 0
-438 -445 0
-438 -488 0
-445 -488 0
-323 -423 0
-323 -445 0
-323 -488 0
-423 -445 0
-423 -488 0
-445 -488 0
-170 -323 0
-170 -423 0
-170 -489 0
-170 -490 0
-323 -423 0
-323 -489 0
-323 -490 0
-423 -489 0
-423 -490 0
-489 -490 0
-170 -191 0
-170 -427 0
-170 -438 0
-170 -489 0
-170 -490 0
-191 -427 0
-191 -438 0
-191 -489 0
-191 -490 0
-427 -438 0
-427 -489 0
-427 -490 0
-438 -489 0
-438 -490 0
-489 -490 0
-47 -106 0
-47 -338 0
-47 -379 0
-47 -420 0
-47 -486 0
-106 -338 0
-106 -379 0
-106 -420 0
-106 -486 0
-338 -379 0
-338 -420 0
-338 -486 0
-379 -420 0
-379 -486 0
-420 -486 0
-338 -358 0
-338 -379 0
-338 -403 0
-338 -420 0
-358 -379 0
-358 -403 0
-358 -420 0
-379 -403 0
-379 -420 0
-403 -420 0
-343 -358 0
-343 -403 0
-343 -414 0
-343 -489 0
-358 -403 0
-358 -414 0
-358 -489 0
-403 -414 0
-403 -489 0
-414 -489 0
-47 -106 0
-47 -343 0
-47 -414 0
-47 -486 0
-47 -489 0
-106 -343 0
-106 -414 0
-106 -486 0
-106 -489 0
-343 -414 0
-343 -486 0
-343 -489 0
-414 -486 0
-414 -489 0
-486 -489 0
-10 -283 0
-10 -366 0
-10 -406 0
-10 -464 0
-10 -467 0
-283 -366 0
-283 -406 0
-283 -464 0
-283 -467 0
-366 -406 0
-366 -464 0
-366 -467 0
-406 -464 0
-406 -467 0
-464 -467 0
-10 -136 0
-10 -283 0
-10 -424 0
-10 -464 0
-10 -491 0
-136 -283 0
-136 -424 0
-136 -464 0
-136 -491 0
-283 -424 0
-283 -464 0
-283 -491 0
-424 -464 0
-424 -491 0
-464 -491 0
-136 -234 0
-136 -258 0
-136 -424 0
-136 -491 0
-136 -492 0
-234 -258 0
-234 -424 0
-234 -491 0
-234 -492 0
-258 -424 0
-258 -491 0
-258 -492 0
-424 -491 0
-424 -492 0
-491 -492 0
-234 -258 0
-234 -366 0
-234 -406 0
-234 -467 0
-234 -492 0
-258 -366 0
-258 -406 0
-258 -467 0
-258 -492 0
-366 -406 0
-366 -467 0
-366 -492 0
-406 -467 0
-406 -492 0
-467 -492 0
-147 -197 0
-147 -207 0
-147 -231 0
-147 -479 0
-147 -480 0
-197 -207 0
-197 -231 0
-197 -479 0
-197 -480 0
-207 -231 0
-207 -479 0
-207 -480 0
-231 -479 0
-231 -480 0
-479 -480 0
-147 -197 0
-147 -384 0
-147 -433 0
-147 -480 0
-197 -384 0
-197 -433 0
-197 -480 0
-384 -433 0
-384 -480 0
-433 -480 0
-326 -384 0
-326 -433 0
-326 -435 0
-326 -483 0
-384 -433 0
-384 -435 0
-384 -483 0
-433 -435 0
-433 -483 0
-435 -483 0
-207 -231 0
-207 -326 0
-207 -435 0
-207 -479 0
-207 -483 0
-231 -326 0
-231 -435 0
-231 -479 0
-231 -483 0
-326 -435 0
-326 -479 0
-326 -483 0
-435 -479 0
-435 -483 0
-479 -483 0
-8 -387 0
-8 -458 0
-8 -475 0
-387 -458 0
-387 -475 0
-458 -475 0
-8 -157 0
-8 -210 0
-8 -454 0
-8 -458 0
-157 -210 0
-157 -454 0
-157 -458 0
-210 -454 0
-210 -458 0
-454 -458 0
-157 -210 0
-157 -454 0
-157 -481 0
-157 -493 0
-210 -454 0
-210 -481 0
-210 -493 0
-454 -481 0
-454 -493 0
-481 -493 0
-387 -475 0
-387 -481 0
-387 -493 0
-475 -481 0
-475 -493 0
-481 -493 0
-19 -31 0
-19 -116 0
-19 -365 0
-31 -116 0
-31 -365 0
-116 -365 0
-31 -54 0
-31 -94 0
-31 -116 0
-54 -94 0
-54 -116 0
-94 -116 0
-54 -94 0
-54 -257 0
-54 -316 0
-94 -257 0
-94 -316 0
-257 -316 0
-19 -257 0
-19 -316 0
-19 -365 0
-257 -316 0
-257 -365 0
-316 -365 0
-12 -38 0
-12 -182 0
-12 -449 0
-12 -494 0
-12 -495 0
-38 -182 0
-38 -449 0
-38 -494 0
-38 -495 0
-182 -449 0
-182 -494 0
-182 -495 0
-449 -494 0
-449 -495 0
-494 -495 0
-12 -182 0
-12 -249 0
-12 -455 0
-12 -494 0
-182 -249 0
-182 -455 0
-182 -494 0
-249 -455 0
-249 -494 0
-455 -494 0
-196 -249 0
-196 -269 0
-196 -455 0
-196 -476 0
-249 -269 0
-249 -455 0
-249 -476 0
-269 -455 0
-269 -476 0
-455 -476 0
-38 -196 0
-38 -269 0
-38 -449 0
-38 -476 0
-38 -495 0
-196 -269 0
-196 -449 0
-196 -476 0
-196 -495 0
-269 -449 0
-269 -476 0
-269 -495 0
-449 -476 0
-449 -495 0
-476 -495 0
-153 -204 0
-153 -267 0
-153 -270 0
-153 -444 0
-204 -267 0
-204 -270 0
-204 -444 0
-267 -270 0
-267 -444 0
-270 -444 0
-204 -214 0
-204 -220 0
-204 -267 0
-204 -296 0
-204 -444 0
-214 -220 0
-214 -267 0
-214 -296 0
-214 -444 0
-220 -267 0
-220 -296 0
-220 -444 0
-267 -296 0
-267 -444 0
-296 -444 0
-214 -220 0
-214 -296 0
-214 -324 0
-214 -380 0
-220 -296 0
-220 -324 0
-220 -380 0
-296 -324 0
-296 -380 0
-324 -380 0
-153 -270 0
-153 -324 0
-153 -380 0
-270 -324 0
-270 -380 0
-324 -380 0
-166 -378 0
-166 -432 0
-166 -443 0
-166 -472 0
-378 -432 0
-378 -443 0
-378 -472 0
-432 -443 0
-432 -472 0
-443 -472 0
-28 -166 0
-28 -177 0
-28 -472 0
-166 -177 0
-166 -472 0
-177 -472 0
-28 -177 0
-28 -244 0
-28 -334 0
-28 -466 0
-177 -244 0
-177 -334 0
-177 -466 0
-244 -334 0
-244 -466 0
-334 -466 0
-244 -334 0
-244 -378 0
-244 -432 0
-244 -443 0
-244 -466 0
-334 -378 0
-334 -432 0
-334 -443 0
-334 -466 0
-378 -432 0
-378 -443 0
-378 -466 0
-432 -443 0
-432 -466 0
-443 -466 0
-89 -160 0
-89 -340 0
-89 -374 0
-89 -494 0
-160 -340 0
-160 -374 0
-160 -494 0
-340 -374 0
-340 -494 0
-374 -494 0
-89 -160 0
-89 -314 0
-89 -407 0
-89 -459 0
-89 -494 0
-160 -314 0
-160 -407 0
-160 -459 0
-160 -494 0
-314 -407 0
-314 -459 0
-314 -494 0
-407 -459 0
-407 -494 0
-459 -494 0
-123 -314 0
-123 -407 0
-123 -439 0
-123 -459 0
-123 -491 0
-314 -407 0
-314 -439 0
-314 -459 0
-314 -491 0
-407 -439 0
-407 -459 0
-407 -491 0
-439 -459 0
-439 -491 0
-459 -491 0
-123 -340 0
-123 -374 0
-123 -439 0
-123 -491 0
-340 -374 0
-340 -439 0
-340 -491 0
-374 -439 0
-374 -491 0
-439 -491 0
-101 -264 0
-101 -330 0
-101 -463 0
-264 -330 0
-264 -463 0
-330 -463 0
-101 -284 0
-101 -330 0
-101 -347 0
-101 -496 0
-284 -330 0
-284 -347 0
-284 -496 0
-330 -347 0
-330 -496 0
-347 -496 0
-56 -284 0
-56 -347 0
-56 -395 0
-56 -456 0
-56 -496 0
-284 -347 0
-284 -395 0
-284 -456 0
-284 -496 0
-347 -395 0
-347 -456 0
-347 -496 0
-395 -456 0
-395 -496 0
-456 -496 0
-56 -264 0
-56 -395 0
-56 -456 0
-56 -463 0
-264 -395 0
-264 -456 0
-264 -463 0
-395 -456 0
-395 -463 0
-456 -463 0
-84 -405 0
-84 -441 0
-84 -497 0
-405 -441 0
-405 -497 0
-441 -497 0
-55 -405 0
-55 -428 0
-55 -441 0
-55 -471 0
-405 -428 0
-405 -441 0
-405 -471 0
-428 -441 0
-428 -471 0
-441 -471 0
-55 -278 0
-55 -397 0
-55 -428 0
-55 -471 0
-278 -397 0
-278 -428 0
-278 -471 0
-397 -428 0
-397 -471 0
-428 -471 0
-84 -278 0
-84 -397 0
-84 -497 0
-278 -397 0
-278 -497 0
-397 -497 0
-148 -200 0
-148 -225 0
-148 -417 0
-148 -498 0
-200 -225 0
-200 -417 0
-200 -498 0
-225 -417 0
-225 -498 0
-417 -498 0
-200 -225 0
-200 -247 0
-200 -288 0
-200 -295 0
-225 -247 0
-225 -288 0
-225 -295 0
-247 -288 0
-247 -295 0
-288 -295 0
-247 -268 0
-247 -288 0
-247 -295 0
-247 -388 0
-247 -457 0
-268 -288 0
-268 -295 0
-268 -388 0
-268 -457 0
-288 -295 0
-288 -388 0
-288 -457 0
-295 -388 0
-295 -457 0
-388 -457 0
-148 -268 0
-148 -388 0
-148 -417 0
-148 -457 0
-148 -498 0
-268 -388 0
-268 -417 0
-268 -457 0
-268 -498 0
-388 -417 0
-388 -457 0
-388 -498 0
-417 -457 0
-417 -498 0
-457 -498 0
-103 -151 0
-103 -251 0
-103 -282 0
-103 -474 0
-151 -251 0
-151 -282 0
-151 -474 0
-251 -282 0
-251 -474 0
-282 -474 0
-29 -103 0
-29 -282 0
-29 -474 0
-29 -488 0
-29 -499 0
-103 -282 0
-103 -474 0
-103 -488 0
-103 -499 0
-282 -474 0
-282 -488 0
-282 -499 0
-474 -488 0
-474 -499 0
-488 -499 0
-29 -355 0
-29 -381 0
-29 -447 0
-29 -488 0
-29 -499 0
-355 -381 0
-355 -447 0
-355 -488 0
-355 -499 0
-381 -447 0
-381 -488 0
-381 -499 0
-447 -488 0
-447 -499 0
-488 -499 0
-151 -251 0
-151 -355 0
-151 -381 0
-151 -447 0
-251 -355 0
-251 -381 0
-251 -447 0
-355 -381 0
-355 -447 0
-381 -447 0
-66 -298 0
-66 -336 0
-66 -352 0
-66 -487 0
-66 -496 0
-298 -336 0
-298 -352 0
-298 -487 0
-298 -496 0
-336 -352 0
-336 -487 0
-336 -496 0
-352 -487 0
-352 -496 0
-487 -496 0
-66 -293 0
-66 -298 0
-66 -352 0
-66 -362 0
-66 -485 0
-293 -298 0
-293 -352 0
-293 -362 0
-293 -485 0
-298 -352 0
-298 -362 0
-298 -485 0
-352 -362 0
-352 -485 0
-362 -485 0
-293 -362 0
-293 -470 0
-293 -485 0
-293 -500 0
-362 -470 0
-362 -485 0
-362 -500 0
-470 -485 0
-470 -500 0
-485 -500 0
-336 -470 0
-336 -487 0
-336 -496 0
-336 -500 0
-470 -487 0
-470 -496 0
-470 -500 0
-487 -496 0
-487 -500 0
-496 -500 0
-272 -377 0
-272 -399 0
-272 -451 0
-272 -473 0
-377 -399 0
-377 -451 0
-377 -473 0
-399 -451 0
-399 -473 0
-451 -473 0
-132 -140 0
-132 -348 0
-132 -399 0
-132 -473 0
-140 -348 0
-140 -399 0
-140 -473 0
-348 -399 0
-348 -473 0
-399 -473 0
-132 -140 0
-132 -171 0
-132 -198 0
-132 -348 0
-132 -422 0
-140 -171 0
-140 -198 0
-140 -348 0
-140 -422 0
-171 -198 0
-171 -348 0
-171 -422 0
-198 -348 0
-198 -422 0
-348 -422 0
-171 -198 0
-171 -272 0
-171 -377 0
-171 -422 0
-171 -451 0
-198 -272 0
-198 -377 0
-198 -422 0
-198 -451 0
-272 -377 0
-272 -422 0
-272 -451 0
-377 -422 0
-377 -451 0
-422 -451 0
-172 -305 0
-172 -363 0
-172 -493 0
-172 -495 0
-305 -363 0
-305 -493 0
-305 -495 0
-363 -493 0
-363 -495 0
-493 -495 0
-14 -172 0
-14 -363 0
-14 -400 0
-14 -495 0
-172 -363 0
-172 -400 0
-172 -495 0
-363 -400 0
-363 -495 0
-400 -495 0
-14 -183 0
-14 -400 0
-14 -497 0
-183 -400 0
-183 -497 0
-400 -497 0
-183 -305 0
-183 -493 0
-183 -497 0
-305 -493 0
-305 -497 0
-493 -497 0
-121 -350 0
-121 -460 0
-121 -499 0
-350 -460 0
-350 -499 0
-460 -499 0
-95 -121 0
-95 -350 0
-95 -391 0
-95 -490 0
-121 -350 0
-121 -391 0
-121 -490 0
-350 -391 0
-350 -490 0
-391 -490 0
-95 -320 0
-95 -391 0
-95 -477 0
-95 -490 0
-95 -500 0
-320 -391 0
-320 -477 0
-320 -490 0
-320 -500 0
-391 -477 0
-391 -490 0
-391 -500 0
-477 -490 0
-477 -500 0
-490 -500 0
-320 -460 0
-320 -477 0
-320 -499 0
-320 -500 0
-460 -477 0
-460 -499 0
-460 -500 0
-477 -499 0
-477 -500 0
-499 -500 0
-143 -367 0
-143 -393 0
-143 -492 0
-367 -393 0
-367 -492 0
-393 -492 0
-4 -143 0
-4 -173 0
-4 -492 0
-143 -173 0
-143 -492 0
-173 -492 0
-4 -173 0
-4 -325 0
-4 -442 0
-173 -325 0
-173 -442 0
-325 -442 0
-325 -367 0
-325 -393 0
-325 -442 0
-367 -393 0
-367 -442 0
-393 -442 0
-193 -361 0
-193 -421 0
-193 -429 0
-193 -498 0
-361 -421 0
-361 -429 0
-361 -498 0
-421 -429 0
-421 -498 0
-429 -498 0
-62 -411 0
-62 -421 0
-62 -429 0
-62 -468 0
-62 -498 0
-411 -421 0
-411 -429 0
-411 -468 0
-411 -498 0
-421 -429 0
-421 -468 0
-421 -498 0
-429 -468 0
-429 -498 0
-468 -498 0
-62 -310 0
-62 -389 0
-62 -411 0
-62 -468 0
-310 -389 0
-310 -411 0
-310 -468 0
-389 -411 0
-389 -468 0
-411 -468 0
-193 -310 0
-193 -361 0
-193 -389 0
-310 -361 0
-310 -389 -361 0
